46
-67.16579491
C    1.590037500100 -2.479254621700  1.490099037700
O    2.724002282700 -1.777084322800  1.025895454000
C    2.624587453100 -0.567783281500  0.391983050100
C    3.757852589000  0.234615085800  0.557467115100
C    3.823192169500  1.482977052200 -0.014502024600
C    2.759333565500  1.970843186800 -0.756833029400
C    1.632677635700  1.185062879100 -0.940132848700
O    0.559108239900  1.565842914600 -1.691586858200
C    0.617643320400  2.790291322700 -2.390497216400
C    1.549131918100 -0.104514323300 -0.371542649800
C    0.370684146600 -0.923334231600 -0.722216585700
C    0.548788843300 -2.153249695000 -1.355488456400
C   -0.537623685900 -2.918591980300 -1.742236654400
C   -1.830753887700 -2.466938828800 -1.540999391800
C   -2.015138575600 -1.224688113800 -0.953662054500
C   -0.926682619900 -0.462300831000 -0.517405663600
P   -1.471437103600  1.141335550700  0.166075576600
C   -1.621355974200  0.743585542300  2.029182189300
C   -0.220844195300  0.957091043100  2.608765925400
C   -2.120445361200 -0.666639649300  2.329267325800
C   -2.567467122300  1.780465744100  2.638578085000
C   -3.191496620100  0.673785987600 -0.445594483800
O   -3.255073832000 -0.701170492500 -0.783751637000
H    1.919817548100 -3.012336866900  2.383548822300
H    0.775829551800 -1.803557968600  1.752156141600
H    1.232110392200 -3.200291542900  0.750576043200
H    4.570973318000 -0.159994520700  1.145843804500
H    4.703010977500  2.093106201400  0.121622783600
H    2.824430049200  2.954222294200 -1.191149958500
H    0.678213940400  3.640092718400 -1.705026236000
H   -0.313949172300  2.847202431300 -2.951019034900
H    1.463057142600  2.810524597500 -3.084109136000
H    1.552948607400 -2.497453966000 -1.559419182600
H   -0.376808501300 -3.871853760000 -2.223874067300
H   -2.687681707800 -3.042909787100 -1.853558616800
H    0.093461634200  1.990168599100  2.465968885200
H   -0.210280449200  0.737260171500  3.675565290900
H    0.510725282200  0.319158027200  2.116785648100
H   -2.181382435500 -0.812928485100  3.407587573800
H   -1.448854275500 -1.420659179400  1.921220264200
H   -3.110878886700 -0.834342848300  1.910095288300
H   -3.597192888000  1.613039820500  2.329890984800
H   -2.528674448000  1.724260620200  3.725558391800
H   -2.276821755200  2.786255036200  2.336788813300
H   -3.391049410700  1.263002612200 -1.354262026900
H   -3.980096734600  0.891585196600  0.277678975700
