46
-67.16568579
C    1.105787031700  3.113161727100 -1.717006164500
O    0.844024737200  1.790347764900 -1.300577447000
C    1.819145823300  1.101084802400 -0.642944693800
C    3.041983297800  1.650485856800 -0.287299434400
C    3.997524355200  0.862116950100  0.332230430700
C    3.733356243800 -0.458794081200  0.614478054200
C    2.503733344900 -1.024981387900  0.273717987500
O    2.393535512000 -2.357846782200  0.591522209300
C    1.195180510900 -2.873341112800  1.138004574000
C    1.529993171700 -0.252034366500 -0.367587744300
C    0.264104781900 -0.811241652500 -0.880769369300
C    0.303507246900 -1.939192222600 -1.702079539000
C   -0.855290746200 -2.473451724500 -2.236849616700
C   -2.084559970800 -1.886204499900 -1.989827692500
C   -2.128520340000 -0.745543527400 -1.203292690400
C   -0.968416816500 -0.215163001400 -0.627430651100
P   -1.336449751700  1.304247938600  0.317226349900
C   -1.576732783900  0.611631537400  2.081701876100
C   -2.439867459800  1.611561965900  2.853831928400
C   -0.176898171000  0.589068099500  2.700565102700
C   -2.206680932300 -0.777160742900  2.124259413200
C   -3.083979384100  1.165936329500 -0.374753382100
O   -3.299479811600 -0.104639969600 -0.964014935200
H    0.212740040200  3.427921167800 -2.254179926300
H    1.265283424700  3.777487489000 -0.863300036000
H    1.969120534500  3.153763071600 -2.387170563500
H    3.263943455500  2.683624625400 -0.495830906700
H    4.950483417500  1.291245252800  0.601631446000
H    4.462445429400 -1.088308227300  1.099749282400
H    0.732234938000 -2.159309850600  1.821481149700
H    1.490691249400 -3.763602150100  1.694132410500
H    0.476208936400 -3.153170887600  0.363756868600
H    1.259789847900 -2.390506492300 -1.925538051100
H   -0.800799913500 -3.350461418600 -2.864790831400
H   -2.996669409900 -2.280866363200 -2.409455361500
H   -2.417033565200  1.376806109100  3.917115618900
H   -2.063992909800  2.625358907000  2.718505577000
H   -3.476712565000  1.582275455200  2.525952917200
H   -0.208999029200  0.173777345000  3.707164898200
H    0.227328633100  1.598843758100  2.756897280000
H    0.506531298200 -0.007307261900  2.098572835800
H   -2.328025500700 -1.094135885100  3.160002180500
H   -3.188384619200 -0.781326292100  1.653872163200
H   -1.582116097300 -1.508744742300  1.614260378000
H   -3.191537343700  1.932556398300 -1.157884266600
H   -3.859273773900  1.338704616200  0.374699744100
