46
-67.16821680
C    3.229617874300 -2.387954698600  1.794207517200
O    2.273143231300 -1.847382540300  0.909579662600
C    2.472630896700 -0.592709293400  0.409886513100
C    3.574996848000  0.200239074600  0.709980944700
C    3.671846264000  1.468123067800  0.167924036300
C    2.690694476300  1.967979390800 -0.667238485900
C    1.580419653700  1.187132596800 -0.969539858200
O    0.567119872200  1.584703119700 -1.791338785100
C    0.674347245600  2.831539263200 -2.444205194700
C    1.463162272600 -0.102522003300 -0.430689343800
C    0.291958192800 -0.932580190200 -0.770502840800
C    0.436743473200 -2.209580888400 -1.307016000300
C   -0.672966638900 -2.962925618300 -1.647847979900
C   -1.955561488600 -2.458744414700 -1.499178177200
C   -2.105851964300 -1.181910105600 -0.983476633000
C   -0.992844596700 -0.436188118800 -0.587450002300
P   -1.479281929500  1.170012423200  0.125032930400
C   -1.662523291900  0.696782496000  1.989431875000
C   -3.109575916900  0.449125030800  2.408228581100
C   -1.116088190900  1.916993625100  2.738152699900
C   -0.817820274600 -0.527215258800  2.335227767900
C   -3.175706493800  0.794116600100 -0.599761373100
O   -3.323991339200 -0.596370394100 -0.832316582300
H    2.849256675500 -3.372910066700  2.060437577800
H    4.206834238200 -2.493156545900  1.313072839600
H    3.328282576700 -1.780136969100  2.698721079400
H    4.355996830000 -0.159300732500  1.359323153800
H    4.529909277500  2.079909177200  0.403130254500
H    2.796168969500  2.960548023800 -1.072072905800
H    1.571705869200  2.876614418000 -3.068069158400
H    0.676534841200  3.658527221200 -1.728740157300
H   -0.209979125000  2.904764673300 -3.074862332900
H    1.427187183900 -2.609344823100 -1.460857929600
H   -0.540679260200 -3.954767802000 -2.054770649400
H   -2.825619795600 -3.029997453200 -1.784162384600
H   -3.721669100800  1.335829788900  2.252043662000
H   -3.543449365100 -0.385601651900  1.860668632000
H   -3.138882995300  0.205248335900  3.470159048000
H   -0.072486343800  2.085905504400  2.474750582100
H   -1.181301269000  1.767627765300  3.815032021100
H   -1.682723616300  2.810380752000  2.478265545100
H   -0.813315165500 -0.676073239100  3.414986410900
H   -1.214275870600 -1.427685560100  1.868850597700
H    0.209938802800 -0.396795637800  2.003550213400
H   -3.213480767900  1.317107536800 -1.569624665500
H   -4.012930028900  1.138227658500  0.007126424600
