46
-67.16657255
C    0.705216960800  3.203637474300 -1.809244103600
O    0.606389615100  1.860268874600 -1.386429392500
C    1.651106332700  1.302225422700 -0.715079329900
C    2.792657591100  2.001056652000 -0.343140102000
C    3.829662997000  1.347159060900  0.298474182600
C    3.741278194300 -0.002329889200  0.571667792600
C    2.605397809000 -0.714149282800  0.202574516000
O    2.616112369100 -2.078640787700  0.443553891800
C    1.716181663400 -2.556395880400  1.422936950400
C    1.537425587900 -0.072746212100 -0.433958167100
C    0.343763210200 -0.814455206500 -0.882657098800
C    0.502967357600 -1.996084543400 -1.607960038600
C   -0.593837559700 -2.711336312500 -2.053189380000
C   -1.880629659200 -2.258133682300 -1.815507559200
C   -2.047146127400 -1.071616966100 -1.118652967300
C   -0.947993715900 -0.359220747600 -0.625505995200
P   -1.483499919900  1.149276170600  0.253907077600
C   -1.604235653100  0.513521585000  2.052062880400
C   -2.130361657200 -0.912381475600  2.182664681000
C   -2.510544133300  1.486034155900  2.809389716400
C   -0.186048027300  0.610905219200  2.618089572000
C   -3.212033163900  0.761290962900 -0.386431195700
O   -3.283078956600 -0.563087363900 -0.885203371600
H    1.565381982700  3.348398747900 -2.468803661100
H   -0.213100186900  3.400573330100 -2.359584239200
H    0.768421227300  3.887244052300 -0.958308562600
H    2.884152188100  3.053771014900 -0.553288721900
H    4.712349760800  1.898675289100  0.584245098600
H    4.545032568900 -0.530761344600  1.060361480900
H    0.677068815900 -2.346422585300  1.155129073200
H    1.937176979600 -2.119699897000  2.402983167000
H    1.866718702200 -3.633905649400  1.462464129200
H    1.500505435700 -2.350367295100 -1.819263265000
H   -0.446578053300 -3.627102962400 -2.606177429100
H   -2.746642377000 -2.795048140500 -2.170026751400
H   -1.474200398600 -1.621746844500  1.680452791000
H   -2.183542150600 -1.187953625800  3.235748734800
H   -3.127455653200 -1.011409536500  1.757764810300
H   -2.189557218700  2.513937052100  2.643783976600
H   -2.465569480900  1.280644752900  3.878025850600
H   -3.547374527900  1.394792468900  2.492262905600
H   -0.165952705800  0.278218720800  3.655086483700
H    0.503328706400 -0.003395095400  2.043307067300
H    0.167912570200  1.640316502300  2.579219457200
H   -3.421650145100  1.455349206200 -1.215361656900
H   -3.990767247200  0.892128052900  0.368142869600
