46
-67.17293052
C    3.215905428200 -2.390402535400  1.814634998700
O    2.251631178000 -1.838803255500  0.944995786100
C    2.475542235400 -0.599385719000  0.415912538600
C    3.600118038200  0.172522842200  0.684876506000
C    3.714233430600  1.430033399700  0.122443152100
C    2.725939308500  1.941953382300 -0.696887095000
C    1.593862110800  1.181361467700 -0.967974864100
O    0.569136507700  1.593193998900 -1.768466346000
C    0.682750805600  2.834227645400 -2.430838336100
C    1.464795730100 -0.102131769100 -0.418135550500
C    0.286502065000 -0.924388738100 -0.751881931400
C    0.432556201400 -2.200660042500 -1.291583804500
C   -0.674790585900 -2.946400459800 -1.654737645000
C   -1.956576660500 -2.436652234600 -1.520791342200
C   -2.109234253400 -1.164308630200 -0.994089528000
C   -0.998350267200 -0.424348078800 -0.578741568200
P   -1.492064908300  1.178057802400  0.130274702900
C   -1.661997530300  0.693806500100  1.972046319600
C   -0.238793874500  0.621731612200  2.527182257700
C   -2.373253300500 -0.633037074700  2.220558874500
C   -2.417112460000  1.840090218400  2.647535465300
C   -3.217734538000  0.783837485900 -0.512575450200
O   -3.330836970000 -0.588121531700 -0.853482135600
H    3.350957590600 -1.771643978800  2.706914794800
H    2.818913668200 -3.362113006100  2.104578663000
H    4.178085048300 -2.526344486600  1.311647863700
H    4.384645899900 -0.194321722900  1.325687343700
H    4.590694253000  2.025205812300  0.330918529200
H    2.843535907700  2.927855507700 -1.114648731600
H    1.561042821900  2.857165646600 -3.082463292800
H    0.725074421800  3.664569335500 -1.720463042000
H   -0.219277086600  2.923462963600 -3.033849185600
H    1.423618527300 -2.603320042900 -1.434020170600
H   -0.540907308700 -3.935658935700 -2.067376854700
H   -2.825444945700 -3.000799728500 -1.822555920000
H    0.303001700200 -0.207179841500  2.076402835700
H    0.304486691900  1.542452949500  2.316191972900
H   -0.260811325800  0.473136962500  3.606257566700
H   -1.826588736300 -1.458954709000  1.767095974600
H   -3.386349349100 -0.631338533900  1.823838900000
H   -2.433061218600 -0.816217157600  3.293447783600
H   -1.914459892000  2.788139039700  2.459929230300
H   -3.437380850300  1.914054559900  2.274881896100
H   -2.459422094900  1.680337500000  3.724099128600
H   -3.376550540300  1.382494297700 -1.423205814500
H   -4.008851008400  1.033517156900  0.198525162600
