46
SIG-NIHDA-723 | MMFF94/ETKDGv3 ensemble | attach_idx=16 axis_idx=15 relative_energy_kcal_mol=0.00000000 boltzmann_weight=0.5000002679
C    2.2768611823 -0.4957604647  3.3934019777
O    2.1888610655  0.3325931460  2.2402419147
C    2.3945329129 -0.2979728807  1.0349661980
C    3.3009266900 -1.3538217290  0.8898415134
C    3.5301498254 -1.9132883074 -0.3639195184
C    2.8734299026 -1.4111467809 -1.4858181938
C    1.9723737934 -0.3465502970 -1.3633268496
O    1.3050844535  0.2133322553 -2.4277649825
C    1.4577488684 -0.3951317969 -3.7019823286
C    1.7075321009  0.2195073183 -0.0901642208
C    0.7561855427  1.3469631052  0.0590675381
C    1.1204227291  2.6157285007 -0.4444146144
C    0.2978835018  3.7389379716 -0.2905121007
C   -0.9071654908  3.6297810011  0.3932650088
C   -1.2749040949  2.3927616672  0.9024091594
C   -0.4820138118  1.2417174040  0.7130625973
P   -1.2737593568 -0.2007310075  1.4790430595
C   -2.3152422225 -0.9603265350  0.0986387535
C   -3.0899495292  0.0517593783 -0.7569612865
C   -3.3199252665 -1.9396238468  0.7459382303
C   -1.3983719340 -1.7834645894 -0.8250345962
C   -2.4685743696  0.9989429636  2.2350485833
O   -2.4583369313  2.2947054119  1.6069003204
H    3.3227160271 -0.6595462445  3.6709209458
H    1.7923679623  0.0317793128  4.2207112260
H    1.7545398328 -1.4486730719  3.2536210143
H    3.8597956833 -1.7389500176  1.7362553943
H    4.2374993453 -2.7318884253 -0.4706894145
H    3.0952366209 -1.8662916188 -2.4450481652
H    1.1258041940 -1.4384996301 -3.6858046979
H    2.4900016926 -0.3114214232 -4.0568640568
H    0.8195576132  0.1447178951 -4.4081638896
H    2.0718591326  2.7315443499 -0.9614586606
H    0.6122198402  4.6981691490 -0.6924483613
H   -1.5443243464  4.4957326310  0.5379141816
H   -2.4239302322  0.7471626654 -1.2786349790
H   -3.6743236079 -0.4629438201 -1.5295762266
H   -3.7995267110  0.6400585892 -0.1666746363
H   -2.8127750792 -2.7062685867  1.3444028179
H   -3.9071742909 -2.4609245570 -0.0196278491
H   -4.0325543447 -1.4268295401  1.4009504991
H   -1.9862389089 -2.3658005264 -1.5447881216
H   -0.7405930049 -1.1371235259 -1.4094772434
H   -0.7727494601 -2.4896953447 -0.2666018115
H   -2.1854122576  1.1518186936  3.2835356992
H   -3.4957452612  0.6249611584  2.2374292859
