51
SIG-NIHDA-2063 | MMFF94/ETKDGv3 ensemble | attach_idx=1 axis_idx=2 relative_energy_kcal_mol=4.86083444 boltzmann_weight=0.0002728954
N    3.0812107831 -0.5498263149 -0.0707627829
P    1.8575918324 -1.6182882555 -0.5996157211
O    0.9279602448 -1.6505888764  0.7297967750
C    0.1333576109 -0.6054817067  1.1615858156
C   -0.9727794967 -0.1184268271  0.4212056059
C    0.4281179678 -0.1581644795  2.4524251768
C   -0.3282131046  0.8466910521  3.0337726553
C   -1.3687999001  1.4435806689  2.3231633987
C   -1.6882283570  0.9941709386  1.0109996033
C   -2.6846661380  1.7391722425  0.3284506032
C   -3.3764575186  2.7995722840  0.9215479297
C   -3.0806946874  3.1738377701  2.2218024424
C   -2.0762591952  2.5045010002  2.9142742253
O    0.9930449408 -0.6039095592 -1.5235112357
C   -0.3155855347 -0.9210183858 -1.8118538967
C   -0.5741073809 -1.3501584098 -3.1144419729
C   -1.8707625521 -1.6653924566 -3.4887320295
C   -1.3250362975 -0.7238241190 -0.8474750518
C   -2.6547998258 -1.1453579906 -1.2322839217
C   -2.9115671959 -1.5900010233 -2.5602561375
C   -4.2052700082 -1.9770151851 -2.9490914346
C   -5.2603575259 -1.9743259185 -2.0410275583
C   -5.0292498312 -1.5990423865 -0.7273505398
C   -3.7484001728 -1.2032290235 -0.3319030440
C    3.8472555065  0.1556949874 -1.0999150094
C    4.5153543845  1.4034178558 -0.5058326119
C    5.0619780192  1.1839944925  0.9049163973
C    5.2687909845 -0.2965221899  1.1784114268
C    3.9647445142 -1.0848500748  0.9825181079
H    1.2525037577 -0.6013095843  3.0034448635
H   -0.0745469977  1.1789129005  4.0376641549
H   -2.9299099005  1.5092790339 -0.7068372942
H   -4.1381906211  3.3312170289  0.3574787034
H   -3.6126278841  3.9972243271  2.6899652337
H   -1.8358641727  2.8318778113  3.9239466740
H    0.2374347964 -1.4342998683 -3.8315523354
H   -2.0560185597 -1.9999596953 -4.5069654608
H   -4.3999828604 -2.3016732640 -3.9694259262
H   -6.2532247296 -2.2833654532 -2.3557710512
H   -5.8379567337 -1.6171314587 -0.0014977337
H   -3.6096826846 -0.9484693563  0.7174258688
H    4.6035042489 -0.5069709786 -1.5429989564
H    3.2178982051  0.4986078408 -1.9310205337
H    3.8014107023  2.2361516278 -0.4811643539
H    5.3302506313  1.7129280681 -1.1714523768
H    4.3525388788  1.5905751004  1.6368038344
H    5.9989626336  1.7364052746  1.0360166943
H    5.6407364069 -0.4445838043  2.1985252431
H    6.0393626705 -0.6846041527  0.5000311312
H    4.2450613060 -2.1282943805  0.7818933120
H    3.4201688403 -1.0817271266  1.9346730937
