51
SIG-NIHDA-2063 | MMFF94/ETKDGv3 ensemble | attach_idx=1 axis_idx=2 relative_energy_kcal_mol=4.33213274 boltzmann_weight=0.0006660965
N   -3.0198974368 -0.7394116641  0.1252883835
P   -1.7775247747 -1.8280708247 -0.3047452565
O   -1.0015667994 -0.9228499165 -1.4047809728
C    0.3208971712 -1.1907903088 -1.6822037679
C    1.3360786700 -0.7813599690 -0.7918878857
C    0.5806386624 -1.7906496664 -2.9152642923
C    1.8881672710 -2.0658078047 -3.2832889698
C    2.9420201542 -1.7785589041 -2.4127572863
C    2.6841688984 -1.1600034184 -1.1565331300
C    3.8002945675 -1.0055613486 -0.2959924007
C    5.0975350128 -1.3640425137 -0.6732527374
C    5.3248500887 -1.9135554760 -1.9247556538
C    4.2515529197 -2.1264789068 -2.7852419856
O   -0.7917306589 -1.6303637557  0.9690860626
C   -0.0757364924 -0.4771673172  1.2269819424
C   -0.3821167815  0.1304616740  2.4473475929
C    0.3051133828  1.2627387904  2.8535708288
C    0.9712936756 -0.0229463177  0.3881953405
C    1.6112764556  1.2124058469  0.7897216549
C    1.2835867340  1.8236844634  2.0329341998
C    1.9191566077  3.0082783008  2.4428981383
C    2.8558503993  3.6405580497  1.6308302689
C    3.1542322150  3.1029179596  0.3897115023
C    2.5342673678  1.9197895861 -0.0231965357
C   -3.8685946040 -1.1295763539  1.2514234149
C   -4.5555293130  0.1013908353  1.8569552739
C   -5.0345287939  1.1047957578  0.8075477094
C   -5.1443098856  0.4492405480 -0.5596279153
C   -3.8062937919 -0.1740452986 -0.9845796955
H   -0.2386505070 -2.0376090568 -3.5843877647
H    2.0739975004 -2.5348162276 -4.2469115766
H    3.6680161254 -0.6081546209  0.7088834619
H    5.9223517479 -1.2164943914  0.0189180538
H    6.3303523533 -2.1949266345 -2.2249906606
H    4.4457337037 -2.5851567370 -3.7528764361
H   -1.1618179834 -0.2868212046  3.0781245124
H    0.0453317953  1.7196362311  3.8055444933
H    1.6741680914  3.4613122397  3.4016126594
H    3.3322960987  4.5600219062  1.9590172095
H    3.8621148442  3.6005584589 -0.2677973957
H    2.7762244613  1.5591604063 -1.0212869854
H   -3.2947466274 -1.6067246654  2.0568880932
H   -4.6194890046 -1.8661802192  0.9337190827
H   -5.4081301664 -0.2355001446  2.4589795395
H   -3.8720012057  0.6120568188  2.5466932865
H   -5.9966580106  1.5339295763  1.1083976006
H   -4.3230790842  1.9384326617  0.7517647541
H   -5.4632841276  1.1846050167 -1.3068942399
H   -5.9194178363 -0.3270927129 -0.5273328897
H   -4.0287043901 -0.9314279182 -1.7487539788
H   -3.2077586999  0.6061691704 -1.4727550743
