51
SIG-NIHDA-2063 | MMFF94/ETKDGv3 ensemble | attach_idx=1 axis_idx=2 relative_energy_kcal_mol=4.33213472 boltzmann_weight=0.0006660943
N    3.0035994018  0.3801863529  0.7161041081
P    1.7086159788  1.0187187877  1.6265347092
O    0.8618645586  1.7142015347  0.4303191999
C   -0.4841003186  1.9473017200  0.6083864855
C   -1.4135047744  0.8909459119  0.5024908896
C   -0.8572008199  3.2786703324  0.7980842398
C   -2.1959546132  3.6010798368  0.9548448996
C   -3.1679339951  2.5979940378  0.9592478016
C   -2.7944287160  1.2387395417  0.7589551591
C   -3.8318966843  0.2809296805  0.8869431299
C   -5.1628040989  0.6387570733  1.1199906471
C   -5.5041346190  1.9747640044  1.2559108093
C   -4.5104835263  2.9469818838  1.1838228962
O    0.8361854675 -0.3327782611  1.8406637373
C    0.1669374628 -0.9950131693  0.8294439935
C    0.5855630669 -2.3128178231  0.6281463093
C   -0.0431104061 -3.1065942575 -0.3173915367
C   -0.9370367349 -0.4304003987  0.1449056350
C   -1.5169922948 -1.2476189400 -0.9004178519
C   -1.0751540164 -2.5863710177 -1.0982605658
C   -1.6509960336 -3.3954800676 -2.0927541984
C   -2.6392995506 -2.9018975310 -2.9390747245
C   -3.0503193760 -1.5854367017 -2.8107896360
C   -2.4902425989 -0.7753218996 -1.8184877792
C    3.7062571054  1.3233485267 -0.1707976444
C    5.0868865987  0.8416735016 -0.6411360641
C    5.1037858317 -0.6653605953 -0.8399442294
C    4.6937510534 -1.3896077194  0.4425801324
C    3.9349321022 -0.4936093927  1.4301021133
H   -0.1013924394  4.0585687233  0.8195172995
H   -2.4704392857  4.6430584310  1.1031966491
H   -3.6087477587 -0.7825081968  0.8198216054
H   -5.9241605785 -0.1326628059  1.2002521425
H   -6.5364513569  2.2606093390  1.4374654719
H   -4.7934155466  3.9888491950  1.3211822627
H    1.4066120421 -2.7146388434  1.2149629171
H    0.3038184994 -4.1275136144 -0.4583022624
H   -1.3183160084 -4.4228447970 -2.2278134208
H   -3.0686117455 -3.5379283503 -3.7080185093
H   -3.8004599421 -1.1770663262 -3.4827943977
H   -2.8213512791  0.2609841511 -1.7835038407
H    3.8496689393  2.3002396794  0.3110316777
H    3.0847709717  1.4936874710 -1.0596308604
H    5.3571799673  1.3490494666 -1.5741008920
H    5.8466158115  1.1170714268  0.1014872699
H    4.4067657877 -0.9308383466 -1.6448740884
H    6.0958295683 -1.0013292776 -1.1613971620
H    4.0798937180 -2.2588691237  0.1755592052
H    5.5865092288 -1.7832619886  0.9434574034
H    4.6422793691  0.0989740970  2.0266468575
H    3.4206165869 -1.1576152611  2.1374320068
