51
SIG-NIHDA-2063 | MMFF94/ETKDGv3 ensemble | attach_idx=1 axis_idx=2 relative_energy_kcal_mol=4.33213306 boltzmann_weight=0.0006660962
N    2.9359841988  0.0973095328 -1.0305666513
P    1.6172356897  0.8447623740 -1.8153031055
O    0.9644754150  1.6243748828 -0.5512913835
C   -0.3660304705  1.9785902568 -0.5955059808
C   -1.3713367953  1.0128321049 -0.3774130519
C   -0.6346897207  3.3370377251 -0.7692134495
C   -1.9477824643  3.7796757956 -0.7944990326
C   -3.0017890048  2.8700001629 -0.6826898536
C   -2.7341620418  1.4838287551 -0.4980251585
C   -3.8616632634  0.6242706030 -0.5032849407
C   -5.1716286994  1.1008582638 -0.6058719061
C   -5.4028614545  2.4614376869 -0.7293724701
C   -4.3232128126  3.3389210320 -0.7755000150
O    0.6087989598 -0.4226789811 -1.9161766911
C   -0.0099878168 -1.0126935393 -0.8308138578
C    0.3062656068 -2.3616928375 -0.6503766951
C   -0.2909924801 -3.0869413703  0.3677850516
C   -0.9820898494 -0.3437916490 -0.0473951428
C   -1.5229571326 -1.0960656291  1.0654589562
C   -1.1859665274 -2.4680836273  1.2404527004
C   -1.7272450020 -3.2130614840  2.3021950512
C   -2.5745636772 -2.6242317501  3.2359826197
C   -2.8758991995 -1.2766906659  3.1274201051
C   -2.3499120105 -0.5292439713  2.0694514665
C    3.7062315053 -0.8634907029 -1.8206818603
C    4.4786759849 -1.8176315796 -0.9004815143
C    5.0820412990 -1.1242580628  0.3212770583
C    5.1808940596  0.3764486503  0.0997413872
C    3.8083647458  0.9788834708 -0.2358040687
H    0.1823374265  4.0441027831 -0.8808926348
H   -2.1406852992  4.8412384558 -0.9321208336
H   -3.7299163497 -0.4545967361 -0.4408945114
H   -6.0038491338  0.4019413909 -0.5949762934
H   -6.4182631399  2.8393639871 -0.8098946078
H   -4.5233575450  4.4012407827 -0.9013064525
H    1.0228929863 -2.8417595802 -1.3106189381
H   -0.0251475799 -4.1342301817  0.4903137913
H   -1.4766710688 -4.2654955878  2.4204711729
H   -2.9782399001 -3.2120923528  4.0554830140
H   -3.5129317913 -0.7959359835  3.8650706722
H   -2.5878140641  0.5327464874  2.0504214064
H    3.0640332469 -1.4830143474 -2.4606172493
H    4.3990199246 -0.3426988369 -2.4960981604
H    3.8196763272 -2.6251011867 -0.5577846812
H    5.2760565103 -2.2950074932 -1.4828503048
H    4.4503167275 -1.3187172062  1.1972532107
H    6.0674697944 -1.5471702275  0.5458598197
H    5.5903774626  0.8640098621  0.9916562431
H    5.8819540689  0.5755253175 -0.7208766240
H    3.2994980138  1.2120789825  0.7086348205
H    3.9890463406  1.9348962238 -0.7461410615
