44
SIG-NIHDA-785 | MMFF94/ETKDGv3 ensemble | attach_idx=2 axis_idx=3 relative_energy_kcal_mol=0.00000000 boltzmann_weight=0.5000000519
C    5.1780858931  0.5770344574 -0.7709990482
N    4.1059274801 -0.4146153870 -0.6881435074
P    2.7266591996 -0.0622999067 -1.6253381510
O    2.0794089833  1.1662168982 -0.8009691271
C    1.2020192558  1.0988076791  0.2607456901
C    1.5665351127  1.9468039021  1.3135397710
C    0.7866458874  2.0305803245  2.4547971123
C   -0.3519254942  1.2390902088  2.5821334458
C   -1.0823958106  1.2885359255  3.7819661921
C   -2.1895233703  0.4706453220  3.9842672942
C   -2.5672944801 -0.4192689646  2.9929846450
C   -1.8527136372 -0.4672788292  1.7920186096
C   -0.7484501830  0.3816678769  1.5174653356
C   -0.0099180023  0.3603419549  0.2707667889
O    1.7541101740 -1.2797909162 -1.1884865261
C    0.4363674532 -1.2140741371 -1.5762447834
C   -0.4617804642 -0.3617384663 -0.9045992663
C   -1.7982439910 -0.2999828186 -1.4585201440
C   -2.7723353443  0.6451136985 -1.0477734841
C   -4.0634611776  0.6778726806 -1.5823849121
C   -4.4244680938 -0.2252331641 -2.5691706872
C   -3.4862618928 -1.1410967135 -3.0365043333
C   -2.1826786862 -1.1763333354 -2.5130580006
C   -1.2571819916 -2.0705858469 -3.0543862688
C    0.0529136862 -2.0778172839 -2.6038531874
C    3.9475973253 -0.8684151425  0.6917568114
H    6.0998261400  0.1916348888 -0.3188946399
H    5.4305811713  0.8125345625 -1.8124135952
H    4.9161591336  1.5118937763 -0.2605083823
H    2.4730043877  2.5424131368  1.2361754859
H    1.0993600007  2.6950231926  3.2569115145
H   -0.7812488602  1.9602020619  4.5836823518
H   -2.7391271768  0.5148048535  4.9203084431
H   -3.4123874569 -1.0852303673  3.1464552163
H   -2.1705367052 -1.2097078758  1.0618974539
H   -2.5276403118  1.3955531203 -0.2979716253
H   -4.7777959497  1.4156350499 -1.2265018060
H   -5.4260572087 -0.2059385732 -2.9896747992
H   -3.7793310382 -1.8237187405 -3.8318952921
H   -1.5393547537 -2.7473553456 -3.8577469264
H    0.7810226113 -2.7499458720 -3.0496771728
H    4.8954355802 -1.2729041910  1.0675302795
H    3.6456322082 -0.0621795869  1.3674542680
H    3.2248203968 -1.6868941068  0.7828589574
