55
SIG-NIHDA-2064 | MMFF94/ETKDGv3 ensemble | attach_idx=10 axis_idx=11 relative_energy_kcal_mol=2.92835883 boltzmann_weight=0.0021679815
N   -2.7431162377  1.0992420207  1.0218993471
C   -3.0533668331 -0.2489171296  0.6682923801
C   -4.3081829644 -0.5863184426  0.1011868240
C   -4.6077514024 -1.9165826666 -0.2528332963
C   -3.6726219010 -2.9279933207 -0.0711780505
C   -2.4370659489 -2.6198906717  0.4770691915
C   -2.1395252368 -1.3024704849  0.8445286766
C   -5.3791326806  0.4491802568 -0.1296034410
C   -4.8333816565  1.8599149621 -0.0236450582
C   -3.9401851777  1.9427513173  1.2025997464
P   -1.3197666019  1.9483725453  1.0922943577
O   -0.3333239994  0.9337175996  1.8700115785
C    1.0233995595  1.1629364975  1.8072099071
C    1.6187970479  1.6319249145  2.9794684014
C    2.9823443194  1.8770899054  3.0072759430
C    3.7555216493  1.6924553314  1.8591325931
C    5.1234395080  2.0118320039  1.8968137946
C    5.9200662558  1.8989597978  0.7608800770
C    5.3526801776  1.4795299436 -0.4316011062
C    3.9951098052  1.1501497652 -0.4782183992
C    3.1557143471  1.2052835596  0.6631770583
C    1.7526762015  0.8527538995  0.6392776965
C    1.0769227500  0.2053871906 -0.4691607666
C    1.5752955594 -0.9846335222 -1.1276317699
C    2.6650818571 -1.7536829412 -0.6426594327
C    3.1407662196 -2.8925843446 -1.2996246851
C    2.5264879363 -3.3237741295 -2.4635058211
C    1.4231165904 -2.6304237800 -2.9512112688
C    0.9322636978 -1.4899090408 -2.2929633946
C   -0.2152639034 -0.8701818796 -2.7845275103
C   -0.7619247300  0.2131280550 -2.1172568577
C   -0.1490586591  0.7155295195 -0.9653072883
O   -0.7948761106  1.8096535798 -0.4304653449
H   -5.5773374130 -2.1628255787 -0.6798617419
H   -3.9066517636 -3.9501608305 -0.3535544543
H   -1.6936378558 -3.3985166714  0.6260124839
H   -1.1653266146 -1.1328046643  1.2864666469
H   -6.1665167111  0.3015722269  0.6202300968
H   -5.8311473813  0.3140138615 -1.1193423922
H   -5.6612307162  2.5734471617  0.0518311987
H   -4.2618400110  2.1152401422 -0.9251812278
H   -3.6960569350  3.0006697489  1.3748552221
H   -4.4832694889  1.6172309157  2.1013238675
H    1.0144591809  1.8034317500  3.8659025135
H    3.4304359405  2.2444371601  3.9277750671
H    5.5806616342  2.3693589141  2.8174435926
H    6.9745519668  2.1567978698  0.8048814880
H    5.9569695491  1.4113452098 -1.3323750752
H    3.5890391231  0.8563469260 -1.4447615432
H    3.1609914105 -1.4797522257  0.2867516681
H    3.9861450322 -3.4394532478 -0.8905522086
H    2.8888815974 -4.2080270427 -2.9800386515
H    0.9331624677 -3.0008062541 -3.8496615913
H   -0.7208572337 -1.2482801667 -3.6697380676
H   -1.6825652166  0.6643044841 -2.4781309731
