55
SIG-NIHDA-2064 | MMFF94/ETKDGv3 ensemble | attach_idx=10 axis_idx=11 relative_energy_kcal_mol=4.36651518 boltzmann_weight=0.0001913726
N    2.7443446330 -0.3768749398  0.8682479560
C    3.7875341512  0.2366104588  0.1039971231
C    4.8308773127 -0.5186247033 -0.4804487518
C    5.8229530906  0.0976076066 -1.2683841527
C    5.8253227510  1.4735633328 -1.4603761435
C    4.8368362885  2.2432197677 -0.8670544138
C    3.8393976556  1.6324121855 -0.0977006949
C    4.9087148494 -2.0070588661 -0.2939990996
C    4.2318909638 -2.3841127288  1.0038339931
C    2.8115087662 -1.8459837141  0.9902816507
P    1.4317138196  0.3848733590  1.5663848155
O    0.3760559141 -0.8162003611  1.8068186411
C   -0.5966992034 -1.2864109725  0.9466238083
C   -0.6510695739 -2.6858703839  0.9139740936
C   -1.5862315779 -3.3418892267  0.1305384771
C   -2.4630931697 -2.6127606854 -0.6672597103
C   -3.3494084276 -3.3051685189 -1.5105230867
C   -4.2007411925 -2.6236149097 -2.3742704419
C   -4.1610408576 -1.2402688413 -2.4157088689
C   -3.2900992891 -0.5438578266 -1.5719601526
C   -2.4396703196 -1.1905455448 -0.6366075426
C   -1.5473892708 -0.4840280849  0.2612157440
C   -1.6078598421  0.9515424004  0.4590108903
C   -2.8120586672  1.7140034089  0.7157980423
C   -4.0614113105  1.1209362132  1.0284062729
C   -5.2168020934  1.8738305297  1.2563769252
C   -5.1608057080  3.2571848136  1.2005939931
C   -3.9451952458  3.8842379327  0.9423405140
C   -2.7755915200  3.1373934822  0.7214412468
C   -1.5668091366  3.8083717964  0.5257149192
C   -0.3885109563  3.0951108748  0.3756331391
C   -0.4196367095  1.6994705920  0.3803086597
O    0.7874787995  1.0582170760  0.2386225122
H    6.6058786192 -0.5015974665 -1.7280272395
H    6.5972294259  1.9418456446 -2.0641082247
H    4.8300597668  3.3213835268 -1.0013910888
H    3.0935433396  2.2882738969  0.3402398368
H    5.9533508821 -2.3379008960 -0.2598310062
H    4.4259344920 -2.5017964801 -1.1451924311
H    4.2205907290 -3.4741595048  1.1154053892
H    4.7825162882 -1.9737066291  1.8602436302
H    2.3548913930 -2.1938478938  1.9260284936
H    2.2548467379 -2.3023223144  0.1610759034
H    0.0437963760 -3.2685731879  1.5131180327
H   -1.5977908552 -4.4293013210  0.1255878356
H   -3.3712804512 -4.3932843442 -1.5135557573
H   -4.8739320895 -3.1729017759 -3.0263406284
H   -4.7978550005 -0.6933020544 -3.1059738849
H   -3.2729272804  0.5400574846 -1.6726432352
H   -4.1495611310  0.0392054864  1.1139318553
H   -6.1538654763  1.3717491765  1.4822713144
H   -6.0546761558  3.8491609103  1.3765032310
H   -3.9149144627  4.9720750264  0.9300738222
H   -1.5263895344  4.8952562397  0.5230349576
H    0.5560494632  3.6183709536  0.2576788361
