55
SIG-NIHDA-2064 | MMFF94/ETKDGv3 ensemble | attach_idx=10 axis_idx=11 relative_energy_kcal_mol=2.78216073 boltzmann_weight=0.0027747223
N    2.8784622591  0.9387476067  0.4227138249
C    3.1653744820 -0.2694092781 -0.2896704628
C    4.4607898645 -0.8485181402 -0.2691907905
C    4.7355229535 -2.0503231012 -0.9544759500
C    3.7506548694 -2.6872724323 -1.6966347916
C    2.4864060845 -2.1257869843 -1.7607789293
C    2.2078699395 -0.9365514059 -1.0745666254
C    5.5965016112 -0.2308465076  0.5029297662
C    5.2981743458  1.2098840119  0.8520134745
C    3.9002740943  1.2815034763  1.4388691797
P    1.4991125720  1.8452328480  0.6276216393
O    0.6494508534  0.9007025125  1.6251001906
C   -0.1557829971 -0.1559610010  1.2604615582
C    0.1451550757 -1.3407133305  1.9394559202
C   -0.5957000139 -2.4875166557  1.7083627310
C   -1.6243293598 -2.4798243467  0.7683104596
C   -2.3114252941 -3.6771907218  0.5049862028
C   -3.3000094936 -3.7396839459 -0.4720077776
C   -3.5991962747 -2.6067555198 -1.2098666375
C   -2.9274289365 -1.4086403473 -0.9483621371
C   -1.9486949835 -1.2812356480  0.0717760036
C   -1.2530255640 -0.0452589707  0.3681320803
C   -1.6152467359  1.2352403695 -0.2110173943
C   -2.9551158833  1.7799760592 -0.2467323034
C   -4.0433299152  1.2255945669  0.4736005630
C   -5.3349629202  1.7563510284  0.4134729161
C   -5.5834940313  2.8804804384 -0.3575512219
C   -4.5355297728  3.4851798266 -1.0459056686
C   -3.2312604305  2.9658557275 -0.9849492451
C   -2.1999831450  3.6388468916 -1.6434538053
C   -0.8941404371  3.1861862979 -1.5442832539
C   -0.6159143662  2.0297655331 -0.8134987794
O    0.7077677360  1.6505353989 -0.7661692001
H    5.7306268069 -2.4877342387 -0.9117314796
H    3.9692442995 -3.6101829428 -2.2252614524
H    1.7020637051 -2.6048050144 -2.3410832856
H    1.1979092673 -0.5623213029 -1.1750061250
H    6.5228822400 -0.2719972100 -0.0821751198
H    5.7525036638 -0.8143382592  1.4188523338
H    6.0372916512  1.5784434618  1.5718923884
H    5.3657544829  1.8435910328 -0.0415227180
H    3.7744821887  2.3037899209  1.8246252544
H    3.8050105331  0.6094403104  2.3040306728
H    0.9735283854 -1.3637197413  2.6428399756
H   -0.3334112933 -3.3966978837  2.2441752130
H   -2.0664850257 -4.5847717795  1.0534981496
H   -3.8164356285 -4.6749186834 -0.6688304122
H   -4.3483595466 -2.6462745613 -1.9962174594
H   -3.1752856748 -0.5593400436 -1.5824796936
H   -3.8921096152  0.3604592510  1.1171046680
H   -6.1386112452  1.2889192100  0.9763912425
H   -6.5848614514  3.2987722577 -0.4092901446
H   -4.7445608192  4.3832271513 -1.6240911288
H   -2.3995447394  4.5429516943 -2.2142748389
H   -0.0885783709  3.7289131142 -2.0312578760
