55
SIG-NIHDA-2064 | MMFF94/ETKDGv3 ensemble | attach_idx=10 axis_idx=11 relative_energy_kcal_mol=0.17208386 boltzmann_weight=0.2272056534
N    2.6308794194  0.6111512833  0.2359798825
C    3.9728916448  0.3634582711  0.6698939925
C    4.9861226002 -0.0115546391 -0.2445487874
C    6.3005752168 -0.2550586253  0.1978904141
C    6.6389871916 -0.1078706437  1.5383017245
C    5.6669527782  0.2808584718  2.4486796248
C    4.3562079881  0.5148882157  2.0185259996
C    4.6991386409 -0.1915363292 -1.7122732741
C    3.3718328308  0.4292671481 -2.1003730528
C    2.3234508097  0.0173622406 -1.0791917922
P    1.3858944924  1.1889299546  1.1744147669
O    0.3495547894  1.7339341389  0.0577178953
C   -0.9573293215  1.9596346942  0.4260614029
C   -1.3428890520  3.2975845970  0.5239492281
C   -2.6469692370  3.6133158992  0.8695932259
C   -3.5651035013  2.6010276530  1.1560708607
C   -4.8621571437  2.9511808351  1.5678793903
C   -5.7920165833  1.9776437757  1.9214810573
C   -5.4287617022  0.6411685453  1.8825556911
C   -4.1441811154  0.2811224090  1.4653472631
C   -3.1796351678  1.2342772761  1.0507557004
C   -1.8504493019  0.8813891448  0.5996588964
C   -1.3996852977 -0.4676600820  0.3127679898
C   -2.1327233601 -1.3997419496 -0.5184656033
C   -3.2540732046 -1.0340319105 -1.3074185538
C   -3.9603171017 -1.9517059981 -2.0909047261
C   -3.5567603565 -3.2758943200 -2.1336917411
C   -2.4332320927 -3.6719496268 -1.4146314829
C   -1.7108129697 -2.7547641180 -0.6324245288
C   -0.5560966614 -3.1859593145  0.0183944040
C    0.2129842396 -2.2879101760  0.7393568596
C   -0.1805595755 -0.9505849314  0.8501478772
O    0.6709168118 -0.1906823108  1.6228872787
H    7.0679343953 -0.5564247290 -0.5119232626
H    7.6568371201 -0.2930676634  1.8695571166
H    5.9199046082  0.4021397413  3.4985507961
H    3.6350365948  0.8080624639  2.7759372380
H    4.6839971556 -1.2664164615 -1.9318863822
H    5.4958339958  0.2616090894 -2.3139415040
H    3.4564144670  1.5230844399 -2.1323396472
H    3.0854658637  0.0937463991 -3.1032783528
H    2.2861577346 -1.0771615458 -0.9955253890
H    1.3516699940  0.3263635943 -1.4794979506
H   -0.6225613434  4.0875994681  0.3298068940
H   -2.9307120715  4.6607485687  0.9440692445
H   -5.1564097917  3.9970237307  1.6323477740
H   -6.7884132886  2.2653540975  2.2452352417
H   -6.1359520744 -0.1280757182  2.1815602624
H   -3.8967854346 -0.7789051066  1.4837513915
H   -3.5930282006  0.0001202450 -1.3359516019
H   -4.8200346308 -1.6214666176 -2.6680776758
H   -4.1005235573 -3.9955544770 -2.7392724689
H   -2.1138812363 -4.7102347976 -1.4826449199
H   -0.2246013469 -4.2191972851 -0.0550498063
H    1.1310143396 -2.6206370144  1.2184689560
