55
SIG-NIHDA-2064 | MMFF94/ETKDGv3 ensemble | attach_idx=10 axis_idx=11 relative_energy_kcal_mol=2.92835905 boltzmann_weight=0.0021679806
N    2.7386972205  0.4430201029  1.4753472087
C    3.0947136950  0.5004839221  0.0937636209
C    4.3306620612 -0.0205124547 -0.3655842685
C    4.6751193374  0.0317996451 -1.7306052178
C    3.8028280068  0.5795905990 -2.6630514541
C    2.5864580106  1.0903537308 -2.2368215790
C    2.2454240469  1.0546174148 -0.8797796340
C    5.3344258854 -0.6317006130  0.5785372842
C    4.7265096933 -0.9271954053  1.9358757848
C    3.9009324279  0.2727130083  2.3682854599
P    1.2813856421  0.3467910000  2.2620385742
O    0.6789875846 -1.0196180760  1.6426932958
C    0.0589042227 -1.1463720887  0.4180842851
C    0.6299505877 -2.1274028909 -0.3982980112
C    0.1007552927 -2.3899831858 -1.6507547382
C   -0.9852210495 -1.6538905226 -2.1212258530
C   -1.4554504808 -1.8941786146 -3.4235889288
C   -2.4939646409 -1.1421445523 -3.9639128212
C   -3.0622076261 -0.1277796684 -3.2115504537
C   -2.6071214234  0.1128093403 -1.9115567022
C   -1.5857332902 -0.6589603775 -1.2988543671
C   -1.1104570980 -0.4342144394  0.0508502421
C   -1.7538228830  0.4652915366  0.9896436752
C   -3.1689817634  0.4762141927  1.2905788742
C   -4.0676183718 -0.5322983546  0.8595761213
C   -5.4350155854 -0.4958170701  1.1469053357
C   -5.9543216233  0.5460761400  1.8983302447
C   -5.1014945426  1.5346023354  2.3812359036
C   -3.7237700975  1.5028139961  2.1064966887
C   -2.8971847588  2.4824747657  2.6607005906
C   -1.5269275437  2.4375375551  2.4594316976
C   -0.9761007037  1.4281529782  1.6679986491
O    0.3916704982  1.4647863646  1.5097542016
H    5.6300446970 -0.3646103024 -2.0683364392
H    4.0707653449  0.6097137660 -3.7150211287
H    1.8919818362  1.5223086407 -2.9525341407
H    1.2905216106  1.4890373715 -0.6103328319
H    6.1691863866  0.0710573231  0.6939392747
H    5.7359972732 -1.5606411839  0.1566608523
H    5.5210418116 -1.1319673493  2.6617839002
H    4.0930982232 -1.8219155743  1.8821979075
H    3.6149664888  0.1278275790  3.4198040426
H    4.5092763857  1.1883041122  2.3535205672
H    1.5053731771 -2.6720047649 -0.0541932493
H    0.5737432509 -3.1486612553 -2.2695128907
H   -0.9992430374 -2.6667819842 -4.0395562017
H   -2.8407849002 -1.3355719126 -4.9750240534
H   -3.8551265236  0.4868175911 -3.6294296106
H   -3.0628032276  0.9448124712 -1.3778038320
H   -3.7026483391 -1.3872642564  0.2927870931
H   -6.0850130773 -1.2881461843  0.7850612756
H   -7.0161011047  0.5811964641  2.1258169605
H   -5.5232111633  2.3299258323  2.9928320727
H   -3.3102893739  3.2740246862  3.2818608001
H   -0.8828064691  3.1844786161  2.9150517526
