55
SIG-NIHDA-2064 | MMFF94/ETKDGv3 ensemble | attach_idx=10 axis_idx=11 relative_energy_kcal_mol=0.17208375 boltzmann_weight=0.2272056954
N    2.6845395283 -0.0189636833 -0.3128070184
C    3.9079182566  0.5530794501 -0.7889826440
C    4.8895250805  1.0437366165  0.1049877413
C    6.0862274217  1.6066545439 -0.3786006227
C    6.3421213857  1.6700271038 -1.7436627848
C    5.4038525202  1.1744738740 -2.6374353881
C    4.2078467061  0.6227763617 -2.1651562339
C    4.6869072444  1.0105751869  1.5972396469
C    3.5516869449  0.0837599873  1.9846141751
C    2.3642274716  0.3607625108  1.0764322479
P    1.5171076604 -0.7539288855 -1.2409279110
O    0.7068429804 -1.6174231761 -0.1382542279
C   -0.5494367319 -2.0805863762 -0.4573200593
C   -0.6554024892 -3.4535055366 -0.6858211092
C   -1.8884913256 -4.0058021653 -0.9928081051
C   -3.0162017189 -3.1908805868 -1.1108497601
C   -4.2404638879 -3.7685086680 -1.4877761178
C   -5.3768105113 -2.9870545585 -1.6761760023
C   -5.2968936722 -1.6144737703 -1.5050973513
C   -4.0864250453 -1.0304515057 -1.1210021686
C   -2.9157231917 -1.7907403358 -0.8716891713
C   -1.6576288223 -1.2074764857 -0.4572519041
C   -1.4756311091  0.1713691872 -0.0436106651
C   -2.3189687272  0.8365574794  0.9276647183
C   -3.2749159192  0.1616924214  1.7303701695
C   -4.0928671519  0.8234008320  2.6511609061
C   -3.9708406703  2.1923250963  2.8223969397
C   -3.0136097959  2.8901660740  2.0923601266
C   -2.1798816732  2.2322765926  1.1720130759
C   -1.1941968950  2.9641463543  0.5119728110
C   -0.3141457007  2.3287512638 -0.3480027177
C   -0.4290039499  0.9560020908 -0.5887645262
O    0.4986775524  0.4777190044 -1.4889022527
H    6.8273837528  1.9933937011  0.3175451177
H    7.2703677424  2.1015362332 -2.1072565388
H    5.5937147202  1.2156845805 -3.7066304389
H    3.5063206490  0.2586574416 -2.9101355287
H    5.6047534347  0.6813144770  2.0984553731
H    4.4663101482  2.0297466730  1.9384953637
H    3.2811189068  0.2482358346  3.0334920970
H    3.8635629320 -0.9640025272  1.8869394921
H    1.5119575097 -0.1880058956  1.4918614968
H    2.0942770959  1.4245194152  1.1203015127
H    0.2260930892 -4.0857370740 -0.6230995454
H   -1.9536305563 -5.0769370464 -1.1705617501
H   -4.3154013527 -4.8413603166 -1.6548264694
H   -6.3139837480 -3.4482425253 -1.9751970832
H   -6.1694570971 -0.9891324374 -1.6749090373
H   -4.0665965887  0.0543910509 -1.0319527477
H   -3.3885719778 -0.9186887016  1.6594037638
H   -4.8175771979  0.2603146559  3.2334245048
H   -4.6031367864  2.7143031669  3.5351750215
H   -2.9123814637  3.9607157834  2.2606549108
H   -1.0796468808  4.0318556807  0.6844157703
H    0.4745819044  2.8969815327 -0.8359091015
