46
SIG-NIHDA-723 | MMFF94/ETKDGv3 ensemble | attach_idx=16 axis_idx=15 relative_energy_kcal_mol=0.00000063 boltzmann_weight=0.4999997321
C    2.3696859458 -0.5679119036  3.2404431179
O    2.0286195432 -0.0699133016  1.9548208589
C    2.0882507554 -0.9399573722  0.8912178660
C    2.5677476214 -2.2518148100  0.9880983902
C    2.6189079274 -3.0701465935 -0.1387549517
C    2.1999144178 -2.5860373411 -1.3746926371
C    1.7054598522 -1.2823023059 -1.4896711066
O    1.3467901041 -0.7373408697 -2.7008612590
C    0.7747525503 -1.6406699144 -3.6391944251
C    1.6337179112 -0.4379638545 -0.3549400782
C    1.1222605327  0.9484284448 -0.4766918753
C    2.0329866933  2.0222405424 -0.3607843581
C    1.6326140074  3.3549718671 -0.5201105426
C    0.3090625503  3.6518622625 -0.8229012212
C   -0.5959229423  2.6080341154 -0.9497853127
C   -0.2197214966  1.2644050052 -0.7434648816
P   -1.6517434900  0.1700255136 -0.9576922347
C   -2.3839774060  0.0005123623  0.7750196815
C   -3.8106025987 -0.5757123190  0.6332498054
C   -1.5512530119 -1.0200993105  1.5726964457
C   -2.4542836097  1.3076915532  1.5768109978
C   -2.5498822232  1.6590063878 -1.6016064114
O   -1.9032885706  2.9048909392 -1.2801109074
H    1.7202139241 -1.4012049327  3.5283250792
H    2.2135081768  0.2388769670  3.9630203104
H    3.4257780753 -0.8528919916  3.2845629136
H    2.9203157401 -2.6648830895  1.9270061119
H    3.0045035935 -4.0832405715 -0.0562469640
H    2.2925180397 -3.2334764682 -2.2403255860
H    1.5559015726 -2.2177518072 -4.1436016916
H    0.2563877031 -1.0481000714 -4.3992094250
H    0.0375478252 -2.3032429420 -3.1723764372
H    3.0805845441  1.8129238422 -0.1493438879
H    2.3624946652  4.1538900663 -0.4227242615
H   -0.0106497336  4.6780593638 -0.9694274127
H   -4.2588149345 -0.7580329338  1.6174129126
H   -4.4802050380  0.1068158012  0.0988038116
H   -3.8119218280 -1.5306774693  0.0936627239
H   -2.0352342626 -1.2624410957  2.5265218662
H   -0.5636971898 -0.6229992512  1.8156879623
H   -1.4146042985 -1.9612151878  1.0271302759
H   -1.4632301462  1.7409257653  1.7483553694
H   -2.8953972746  1.1310478371  2.5655307693
H   -3.0750643069  2.0644330635  1.0869174635
H   -3.5854378089  1.7083937642 -1.2550129427
H   -2.5855921014  1.5925922439 -2.6957639220
