70
SIG-NIHDA-2067 | MMFF94/ETKDGv3 ensemble | attach_idx=3 axis_idx=2 relative_energy_kcal_mol=0.00000000 boltzmann_weight=0.2900390450
C    2.0379266817 -1.1770405265  2.6896518783
C    1.8331633014 -1.0201369864  1.1720036098
N    1.9430372651  0.3818392319  0.7245402612
P    0.6072543082  1.2720480085  0.1831162682
O   -0.3439865990  1.2311467194  1.4822198220
C   -1.4303784134  0.4218701592  1.7410783068
C   -2.4375070153  0.0322013731  0.8149875334
C   -1.5091440472  0.0862174853  3.0993577249
C   -2.5259299282 -0.7233049164  3.5764113628
C   -3.4637214200 -1.2527011011  2.6965634569
C   -3.4177210978 -0.9120067795  1.3157832134
C   -4.3429029456 -1.6011116640  0.4870077523
C   -5.2980831030 -2.4914493196  0.9878019464
C   -5.3530172685 -2.7496235536  2.3467022797
C   -4.4341617719 -2.1396128205  3.1942507817
O   -0.1105424683  0.1728938743 -0.7603506643
C   -1.3094513667  0.5346274562 -1.3230797528
C   -1.2865474943  0.8311575863 -2.6873263110
C   -2.4507947521  1.2310141249 -3.3219283977
C   -2.4805182132  0.5472489694 -0.5438552061
C   -3.6594890030  1.0706184739 -1.2034118653
C   -3.6319639618  1.3809291515 -2.5932360552
C   -4.7807206576  1.8606431845 -3.2449354005
C   -5.9633550326  2.0846841629 -2.5460032074
C   -6.0051163529  1.8462508386 -1.1818198156
C   -4.8710542818  1.3593494144 -0.5254771831
C    3.2280756168  1.0613419623  0.9825190142
C    3.8112232049  1.7222366205 -0.2748980984
C    4.4547460107  0.9195306997 -1.2336802394
C    4.9901868620  1.4736615812 -2.3982336799
C    4.8892554164  2.8421803526 -2.6284036097
C    4.2495084436  3.6545644354 -1.6962462238
C    3.7127286222  3.1001316052 -0.5305988636
C    3.1561591096  2.0071810247  2.1992480559
C    2.6946721609 -1.9705112334  0.3305146919
C    2.2696370165 -2.3032497877 -0.9688361449
C    3.0201295083 -3.1570204283 -1.7799477048
C    4.2125420237 -3.6957482662 -1.3074231100
C    4.6534042932 -3.3796709576 -0.0254233280
C    3.9022574430 -2.5245382820  0.7867597342
H    1.8455207961 -2.2113512614  2.9979550806
H    3.0516276887 -0.9234400617  3.0144448782
H    1.3487642728 -0.5377318864  3.2477567499
H    0.8072471099 -1.3823027501  1.0128097837
H   -0.7616249093  0.4661332578  3.7920057970
H   -2.5509281901 -0.9659536640  4.6361409474
H   -4.3216094827 -1.4645964174 -0.5929440187
H   -5.9889435640 -2.9824303656  0.3074696172
H   -6.0915164992 -3.4396451413  2.7449152209
H   -4.4705704318 -2.3785559752  4.2554747277
H   -0.3559437275  0.7583603448 -3.2440331793
H   -2.4163145171  1.4633140080 -4.3838903753
H   -4.7581339231  2.0812838027 -4.3104507744
H   -6.8406671318  2.4631236772 -3.0631798796
H   -6.9138966582  2.0416598072 -0.6186613925
H   -4.9446608923  1.2183485686  0.5515735421
H    3.9855199446  0.3188725495  1.2672360020
H    4.5385268630 -0.1539240906 -1.0803567044
H    5.4810547765  0.8320217605 -3.1249106842
H    5.3034351966  3.2740404888 -3.5351028112
H    4.1620914658  4.7226828282 -1.8771160429
H    3.2084447569  3.7643485527  0.1656443357
H    2.8659114424  1.4686082686  3.1065273219
H    2.4385153101  2.8228850675  2.0636597028
H    4.1357970341  2.4602556217  2.3914656588
H    1.3424899090 -1.8906500677 -1.3605291785
H    2.6705232982 -3.3976998596 -2.7802825397
H    4.7973910808 -4.3603018639 -1.9372627942
H    5.5857125085 -3.7978248812  0.3453477021
H    4.2864363787 -2.2973721908  1.7768933209
