70
SIG-NIHDA-2067 | MMFF94/ETKDGv3 ensemble | attach_idx=3 axis_idx=2 relative_energy_kcal_mol=0.62505584 boltzmann_weight=0.1009920907
C   -1.8481699157 -2.2128102717 -2.0239627408
C   -2.2301914397 -1.0199311274 -1.1227700583
N   -1.8838802704 -1.1801602098  0.3147183258
P   -0.3090580055 -1.5650267999  0.8347424988
O    0.5876515547 -1.1431257836 -0.4404869198
C    1.9373832862 -0.9419117053 -0.2739740710
C    2.4102324047  0.2548046623  0.2985296612
C    2.7770253608 -1.9319254546 -0.7863739258
C    4.1512481937 -1.7861165800 -0.6853104694
C    4.6967514297 -0.6722849206 -0.0432028189
C    3.8441729731  0.3439006851  0.4744492883
C    4.4804291914  1.3809424807  1.2023046189
C    5.8684849863  1.4572455075  1.3478835396
C    6.6756413695  0.4814580330  0.7855763687
C    6.0915407826 -0.5807155057  0.1012633182
O   -0.0174201681 -0.3085874606  1.8171736922
C    0.2997390068  0.9720365730  1.4066149822
C   -0.5472084099  1.9582213455  1.9206814134
C   -0.3242446364  3.2953154016  1.6331109469
C    1.4571909081  1.2883160053  0.6511327522
C    1.6059760150  2.6782802659  0.2741076669
C    0.7242703652  3.6665268527  0.7935375995
C    0.8781881139  5.0215605778  0.4531977877
C    1.8688119562  5.4325522390 -0.4334322480
C    2.7073252087  4.4882620035 -1.0021802696
C    2.5687722353  3.1396337476 -0.6607184878
C   -3.0534523401 -1.5956443742  1.1338525260
C   -3.4797579832 -3.0525911422  0.9451982092
C   -4.6169402680 -3.3506978941  0.1731306347
C   -5.0285300925 -4.6712424911 -0.0186161065
C   -4.3124436287 -5.7154634933  0.5598653267
C   -3.1865090888 -5.4398851406  1.3312686006
C   -2.7736936658 -4.1193327170  1.5239227699
C   -2.9636023297 -1.2404310598  2.6321898103
C   -1.8286464909  0.3584975859 -1.6621696721
C   -2.4987397841  1.4977855440 -1.1782034650
C   -2.1682715053  2.7764928310 -1.6310049771
C   -1.1577655409  2.9409844024 -2.5730381795
C   -0.4833166798  1.8274489182 -3.0655102826
C   -0.8183825742  0.5467786345 -2.6175917623
H   -2.2639719847 -2.0750581400 -3.0293248204
H   -0.7694134924 -2.3455706042 -2.1407560372
H   -2.2523181352 -3.1527084109 -1.6373511228
H   -3.3263586372 -0.9893805181 -1.2150513674
H    2.3539067828 -2.8109818701 -1.2641633725
H    4.7926424805 -2.5669165710 -1.0876773241
H    3.8874723590  2.1532447824  1.6892786572
H    6.3091220353  2.2783460875  1.9071480204
H    7.7552820535  0.5338520821  0.8947977627
H    6.7398514189 -1.3523971179 -0.3092985785
H   -1.3870309543  1.6770147497  2.5478107853
H   -1.0042907518  4.0391521303  2.0404136777
H    0.2083668761  5.7723145291  0.8674906992
H    1.9695520220  6.4825443559 -0.6926634463
H    3.4678254309  4.7893346865 -1.7175297191
H    3.2268780775  2.4331821105 -1.1631060594
H   -3.8999597600 -0.9747947026  0.8041093787
H   -5.1926310006 -2.5520578645 -0.2898718951
H   -5.9082656046 -4.8838305681 -0.6204009633
H   -4.6317494897 -6.7433845182  0.4107659928
H   -2.6268269090 -6.2535427907  1.7853541863
H   -1.8931594924 -3.9359095303  2.1341318479
H   -2.1746931866 -1.7859300017  3.1595579752
H   -2.7890561682 -0.1688603202  2.7665895195
H   -3.9079485736 -1.4777564298  3.1370998942
H   -3.2758824399  1.3911233899 -0.4252720170
H   -2.6863553020  3.6441198725 -1.2332957895
H   -0.8830032530  3.9363336252 -2.9099280818
H    0.3173870458  1.9548578752 -3.7887538468
H   -0.2559819716 -0.2955004836 -3.0100098393
