70
SIG-NIHDA-2067 | MMFF94/ETKDGv3 ensemble | attach_idx=3 axis_idx=2 relative_energy_kcal_mol=0.38123304 boltzmann_weight=0.1524090345
C   -2.6090893264  0.0213117557 -3.0294830248
C   -2.9931618179  0.1457922087 -1.5393268309
N   -1.8674490276 -0.0752723677 -0.6033478550
P   -0.4895384519  0.9112348431 -0.7047036486
O    0.0681401490  0.8582888772  0.8034475755
C    1.1454590437  0.1682778025  1.3190614059
C    2.3903721672 -0.0798322270  0.6759029189
C    0.9117502837 -0.2156470182  2.6473196621
C    1.8594992207 -0.9269774308  3.3625534753
C    3.0449617972 -1.3154315454  2.7492122266
C    3.3120460674 -0.9314407589  1.4050899734
C    4.4885675632 -1.4900280939  0.8369788395
C    5.3800831231 -2.2893839649  1.5598777183
C    5.1179281952 -2.5869577749  2.8859172789
C    3.9510967820 -2.1096901867  3.4732397866
O    0.5238441805 -0.1124207848 -1.4418763311
C    1.7912374512  0.3597994299 -1.6818811809
C    2.0898425054  0.6741930424 -3.0095127004
C    3.3307046664  1.2006698630 -3.3277507947
C    2.7180803981  0.4732422899 -0.6289338669
C    3.9636342440  1.1304135323 -0.9682331426
C    4.2618376433  1.4609971153 -2.3210640254
C    5.4822222273  2.0698906287 -2.6593911525
C    6.4143017155  2.4046430943 -1.6813613530
C    6.1284118080  2.1479876665 -0.3502018746
C    4.9220047509  1.5328869820 -0.0036998752
C   -1.8163797850 -1.4173373611  0.0171838989
C   -2.9682604865 -1.6256734674  1.0118728624
C   -3.9181300172 -2.6522812721  0.8928599697
C   -4.9406028820 -2.7968524638  1.8359229475
C   -5.0312458517 -1.9203447762  2.9140379149
C   -4.1003094828 -0.8959797344  3.0516045268
C   -3.0793009763 -0.7518529648  2.1105197794
C   -1.6418716804 -2.5506291294 -1.0105450014
C   -3.7588865377  1.4390606090 -1.2305951891
C   -4.8044233936  1.4088954073 -0.2908064724
C   -5.5212390018  2.5639658789  0.0281232089
C   -5.2036110208  3.7721877367 -0.5850456708
C   -4.1677640904  3.8253982125 -1.5139264073
C   -3.4496379075  2.6696066930 -1.8331983032
H   -1.8891114751  0.7791370943 -3.3540303871
H   -3.4985599108  0.1292434025 -3.6615041047
H   -2.1723722649 -0.9573164360 -3.2496677037
H   -3.7382496518 -0.6492640800 -1.3966880592
H   -0.0299162996  0.0435847562  3.1256517737
H    1.6387460967 -1.2095364655  4.3892199012
H    4.7269423809 -1.3211278161 -0.2117273118
H    6.2715359496 -2.6794009863  1.0757745891
H    5.8041762538 -3.2068654647  3.4558233941
H    3.7429271699 -2.3810643019  4.5065645389
H    1.3471399045  0.5168611924 -3.7867053491
H    3.5474257310  1.4453233707 -4.3651189159
H    5.7117898544  2.3057759536 -3.6967648421
H    7.3499829264  2.8823050271 -1.9583993591
H    6.8353783078  2.4279541965  0.4263930987
H    4.7301765675  1.3809619139  1.0573157915
H   -0.9261872325 -1.5020925623  0.6523074493
H   -3.8859719898 -3.3578213790  0.0675762132
H   -5.6674488979 -3.5978047365  1.7268114980
H   -5.8274066965 -2.0347463837  3.6444571468
H   -4.1687734011 -0.2033679826  3.8860460120
H   -2.3714299133  0.0670535087  2.2230893250
H   -1.4824945206 -3.5087147345 -0.5016701978
H   -0.7677452627 -2.3817665558 -1.6472915586
H   -2.5141343634 -2.6679590606 -1.6613210627
H   -5.0669330805  0.4765409591  0.2050948814
H   -6.3239492002  2.5170770579  0.7589313210
H   -5.7586331941  4.6720981487 -0.3353776711
H   -3.9125544067  4.7693377762 -1.9882444590
H   -2.6394736267  2.7508842411 -2.5523872207
