70
SIG-NIHDA-2067 | MMFF94/ETKDGv3 ensemble | attach_idx=3 axis_idx=2 relative_energy_kcal_mol=4.17871807 boltzmann_weight=0.0002508620
C   -1.2472829630  0.1697607227 -3.3666087837
C   -2.0839427196 -0.6168281776 -2.3223653343
N   -1.3860187189 -0.9733201384 -1.0342049213
P    0.2303900719 -1.5826385951 -1.2182268272
O    0.9900133130 -0.1788309089 -1.4988667337
C    2.3642691157 -0.1843601164 -1.5105995665
C    3.0788405402 -0.2050904270 -0.2989334729
C    2.9757506225 -0.0954365250 -2.7623050750
C    4.3583519875 -0.0948428479 -2.8520278575
C    5.1386785672 -0.2221856899 -1.7010833473
C    4.5183032152 -0.3030486453 -0.4219827017
C    5.3830841481 -0.5385966623  0.6766262737
C    6.7721195982 -0.6131527247  0.5396598195
C    7.3502004625 -0.4752170413 -0.7119919405
C    6.5367144851 -0.2888205302 -1.8260166426
O    0.6854639870 -1.8417658573  0.3110602012
C    1.2201103912 -0.9358528881  1.2036763671
C    0.6241188798 -1.0049679586  2.4684551684
C    1.0549436864 -0.1876146104  3.5003583811
C    2.3470066453 -0.1113311620  0.9497316228
C    2.7071167001  0.8094151705  2.0093303149
C    2.0700534083  0.7388977597  3.2796377938
C    2.4349825214  1.6082363430  4.3220380464
C    3.3998147914  2.5925605520  4.1328943032
C    3.9979307498  2.7283528939  2.8914055197
C    3.6480821123  1.8607836223  1.8520532581
C   -2.2423735101 -1.8083938718 -0.1162051426
C   -3.1954972847 -0.9767121590  0.7554179025
C   -4.5603105861 -1.2722837602  0.9011308865
C   -5.3764470938 -0.5094772747  1.7428717146
C   -4.8431356298  0.5568183462  2.4615847977
C   -3.4928092641  0.8650993019  2.3377906214
C   -2.6793122885  0.1049396053  1.4951525474
C   -2.8758815161 -3.0476443437 -0.7847052635
C   -3.3576509819  0.2151827306 -2.1397883144
C   -4.5836327828 -0.2428661622 -2.6504654288
C   -5.7419995418  0.5258904511 -2.5192989830
C   -5.6897517083  1.7653320459 -1.8853465093
C   -4.4792534924  2.2405992966 -1.3866946657
C   -3.3200759412  1.4746982429 -1.5186433231
H   -0.4292096304 -0.4330443058 -3.7735960555
H   -0.8279668456  1.0920196458 -2.9486813035
H   -1.8652560192  0.4571925175 -4.2270134163
H   -2.3538852762 -1.5509885301 -2.8332755225
H    2.3698881194 -0.0273312407 -3.6613919604
H    4.8206643750 -0.0269523703 -3.8342176801
H    4.9750238533 -0.6845202254  1.6753820237
H    7.3934654413 -0.7848266161  1.4147106361
H    8.4291614928 -0.5317242061 -0.8262369139
H    7.0070342123 -0.2105075919 -2.8043434253
H   -0.1924135263 -1.7011110388  2.6451510636
H    0.5611736274 -0.2596287402  4.4666863591
H    1.9528429714  1.5349262208  5.2950383329
H    3.6651695619  3.2623272288  4.9459808514
H    4.7324470163  3.5105713251  2.7188807907
H    4.1212861230  2.0351140953  0.8872446350
H   -1.6021417395 -2.2507440194  0.6592155407
H   -5.0211510406 -2.0902055358  0.3557828708
H   -6.4330027248 -0.7475268229  1.8308743155
H   -5.4807405250  1.1505516951  3.1100177428
H   -3.0696553053  1.7017845913  2.8863973279
H   -1.6311322568  0.3778636892  1.3950718957
H   -3.6913958025 -2.7927736060 -1.4666419608
H   -3.2873337511 -3.7233248808 -0.0252110376
H   -2.1319703536 -3.6239161129 -1.3450990038
H   -4.6454570893 -1.2030082692 -3.1562409493
H   -6.6857431457  0.1573047478 -2.9115973991
H   -6.5919238028  2.3606160222 -1.7771324442
H   -4.4356594858  3.2032693997 -0.8852761128
H   -2.3830824507  1.8533049274 -1.1149939067
