70
SIG-NIHDA-2067 | MMFF94/ETKDGv3 ensemble | attach_idx=3 axis_idx=2 relative_energy_kcal_mol=3.58222164 boltzmann_weight=0.0006865462
C   -3.0058546563  0.5736230813 -3.0175672643
C   -3.0150427561  0.5558257971 -1.4727396986
N   -1.9754176645 -0.3962353631 -0.9486863473
P   -0.3617325568  0.1498104500 -1.1393656457
O   -0.0125463553  0.5775550652  0.3812375515
C    1.1651408860  1.2666875571  0.5315434857
C    2.4099452323  0.6401453045  0.3063857910
C    1.0245595907  2.6066913694  0.9037513699
C    2.1405843145  3.4208338409  0.9738087983
C    3.3903739781  2.9217156156  0.6096257888
C    3.5360337913  1.5522288546  0.2417012268
C    4.8171942953  1.1762819539 -0.2376555615
C    5.9027986951  2.0567172283 -0.2690898495
C    5.7426076677  3.3642029501  0.1589327689
C    4.4907719667  3.7953519407  0.5871754323
O    0.4370183683 -1.2325901388 -1.2242880406
C    1.6059811118 -1.6168160527 -0.6024447779
C    1.8423115297 -2.9797329031 -0.8458403829
C    2.9265097865 -3.6311893570 -0.2880143930
C    2.5045513719 -0.8202647548  0.1738618049
C    3.5348731848 -1.5744316103  0.8697676269
C    3.7562221707 -2.9544599357  0.5950148294
C    4.7851872551 -3.6722025057  1.2297708283
C    5.5895339257 -3.0756488198  2.1939729719
C    5.3549878208 -1.7594657007  2.5490310413
C    4.3419602218 -1.0365028033  1.9096318028
C   -2.4225943982 -1.0884064095  0.2972599064
C   -3.7505777290 -1.8418769337  0.1029551306
C   -4.7984147317 -1.6746660027  1.0227229261
C   -6.0019480311 -2.3625758387  0.8588267821
C   -6.1704988581 -3.2297912919 -0.2192470065
C   -5.1353235867 -3.4151161183 -1.1333810369
C   -3.9309515030 -2.7296089775 -0.9722460390
C   -1.4702992489 -2.1472379371  0.8962251369
C   -3.0165223101  1.9576441816 -0.8455959560
C   -2.3117272986  3.0385658963 -1.4028179232
C   -2.3313553698  4.2989970430 -0.7993534532
C   -3.0579483640  4.5031506928  0.3699920285
C   -3.7680361995  3.4482574106  0.9352966502
C   -3.7488695318  2.1886864339  0.3318149674
H   -3.8289067455  1.1895683719 -3.3986618574
H   -3.1441337938 -0.4393529691 -3.4131362631
H   -2.0785058866  0.9706556968 -3.4419906970
H   -4.0158153571  0.1601876881 -1.2622009959
H    0.0366202743  3.0108594349  1.1113672363
H    2.0136044520  4.4627384411  1.2578650686
H    4.9876680549  0.1692014523 -0.6152498858
H    6.8672594623  1.7131387430 -0.6338071668
H    6.5815223592  4.0542096801  0.1388905319
H    4.3755814983  4.8349639444  0.8879800341
H    1.1557517156 -3.5383411206 -1.4795588313
H    3.0748726234 -4.6860735607 -0.5057217671
H    4.9544257016 -4.7208299582  0.9919203818
H    6.3736188360 -3.6459687639  2.6836279179
H    5.9483001711 -1.2863257216  3.3270134284
H    4.1776965377 -0.0200285844  2.2634268932
H   -2.5660078115 -0.3290459232  1.0769368383
H   -4.6810194973 -1.0102064188  1.8754814739
H   -6.8077558040 -2.2249698185  1.5750747642
H   -7.1077916247 -3.7653326851 -0.3446340198
H   -5.2639711163 -4.0947392343 -1.9715100133
H   -3.1279354262 -2.8827104116 -1.6908432824
H   -1.9440275048 -2.6700152797  1.7371274066
H   -0.5589567950 -1.7018495768  1.3016680052
H   -1.1950221198 -2.9115005137  0.1609520528
H   -1.7283157964  2.9152365724 -2.3116136089
H   -1.7763680850  5.1203841894 -1.2451855486
H   -3.0739422942  5.4836706706  0.8378038394
H   -4.3412855540  3.6043885786  1.8453203989
H   -4.3206464898  1.3839338642  0.7868365563
