44
-69.99188129
C    4.064119729600  0.904671096200  1.643618439500
N    3.618765781400  0.705321389700  0.279028723300
P    2.391369655000  1.741366430600 -0.350753832800
O    1.389135003700  1.531623084400  0.952310027400
C    0.040894423600  1.694243197800  0.697534834100
C   -0.588473555400  2.882238865700  1.102097238600
C   -1.923914296000  3.056497671400  0.877989797400
C   -2.672470357900  2.076536426800  0.192719419400
C   -4.038839026300  2.268194240100 -0.103747720200
C   -4.741296804000  1.333728494200 -0.811216213500
C   -4.100863436800  0.170755854400 -1.265710609600
C   -2.782122252300 -0.052607652600 -0.982341784000
C   -2.034890370600  0.878141842000 -0.227728370600
C   -0.662012446100  0.678018197100  0.084000653800
O    1.699516816900  0.710774891000 -1.435426118200
C    1.200021416900 -0.508681885000 -1.014913925800
C    0.049747133700 -0.572620045100 -0.255388737600
C   -0.399586251100 -1.838105076100  0.214712680000
C   -1.476004541800 -1.969166106100  1.119407242700
C   -1.882790532600 -3.199983602700  1.554412287900
C   -1.236781545600 -4.363534789100  1.109881422200
C   -0.172833574000 -4.269664377900  0.257592889100
C    0.282164814100 -3.014075725900 -0.198168738000
C    1.408528199800 -2.899772929600 -1.039345708800
C    1.872345220800 -1.673582954800 -1.418410955700
C    4.732960549900  0.549147170000 -0.638862639100
H    3.203300253000  1.102376661900  2.276536865500
H    4.549544265000 -0.012170798400  1.986251988300
H    4.779073709400  1.731373634400  1.736574467300
H    0.009088654900  3.636484677700  1.592054939800
H   -2.418134033400  3.961142979100  1.200287446100
H   -4.515765409600  3.177553952000  0.233050022200
H   -5.786339298900  1.488834777300 -1.036079473700
H   -4.657566710800 -0.549418681000 -1.847364847200
H   -2.294135118500 -0.944543098800 -1.344926218500
H   -1.971952114400 -1.079526743200  1.476924593500
H   -2.705555925300 -3.281734623600  2.249725529600
H   -1.578092916100 -5.328103865100  1.456281954400
H    0.346593598000 -5.157083801100 -0.075132821400
H    1.915675887000 -3.798256217100 -1.359378154900
H    2.751480351100 -1.567955587600 -2.035311788000
H    5.476958611600  1.348941974700 -0.540475907200
H    5.224126175000 -0.406243714300 -0.440113181900
H    4.356490899000  0.547975999100 -1.661454741900
