44
-69.99180424
C    2.370367553200  2.909840093900  1.204491897400
N    3.183989586700  2.284566343700  0.185887481100
P    2.866835238100  0.792132752900 -0.514415338400
O    1.511571829500  1.063748765700 -1.441412532300
C    0.265954082400  1.356103476800 -0.940251228100
C   -0.271872592600  2.620055057300 -1.248174543500
C   -1.510391152300  2.970285223300 -0.798353592000
C   -2.247738448200  2.096179814400  0.028847318400
C   -3.497567971800  2.470413493700  0.565231039900
C   -4.178470312500  1.636371249200  1.406972196000
C   -3.626000322600  0.396334752200  1.760092195300
C   -2.424039564800 -0.002407755900  1.243851384600
C   -1.710533072700  0.819756475200  0.344505518200
C   -0.456425598700  0.432381012800 -0.209102087600
O    2.115192740700  0.097323076300  0.800828165800
C    1.373816967700 -1.036473810100  0.536256073400
C    0.101651351100 -0.916025740900  0.015690828400
C   -0.619406337400 -2.096485220100 -0.321242819000
C   -1.853432933000 -2.059313343200 -1.006059304500
C   -2.520624443500 -3.212054414700 -1.315908973900
C   -1.990615708400 -4.460928702500 -0.959045666800
C   -0.781928228600 -4.533007334400 -0.325402574000
C   -0.059441535900 -3.363704149000 -0.006906513300
C    1.215931374500 -3.428926079000  0.593941819200
C    1.931132218500 -2.291587368900  0.831455783200
C    4.531121681100  2.801846154700  0.100503309500
H    2.805159505900  2.774003936000  2.201272645300
H    2.288939576500  3.981512011900  1.001862662600
H    1.372597923600  2.476180628100  1.200695708800
H    0.325216892700  3.288602563900 -1.850042186000
H   -1.930607274700  3.933600094500 -1.047720552600
H   -3.900549134300  3.438465119100  0.303478815200
H   -5.134220334300  1.930502637700  1.815398611800
H   -4.155528212200 -0.244558187900  2.449953743800
H   -2.002359662400 -0.953021786000  1.533097945100
H   -2.263800373200 -1.104020356700 -1.296085789900
H   -3.461999809400 -3.165203619400 -1.843717190700
H   -2.536484709800 -5.360855077500 -1.201799364400
H   -0.351503898000 -5.490022156100 -0.067039193600
H    1.630249329200 -4.396293974500  0.837020245300
H    2.925203471500 -2.321340779200  1.251901543900
H    4.509323677800  3.857530202700 -0.185093756100
H    5.059244056100  2.712995987200  1.056201249000
H    5.076887348100  2.242827797100 -0.657398312300
