51
-78.47985948
N    3.208878028100 -0.243169116600 -0.422918259400
P    2.147674667700  0.984186170600 -0.928432146500
O    1.294278818400  1.099716039400  0.486540918200
C    0.005733907100  1.587096883400  0.388768780800
C   -1.009256613500  0.751098817900 -0.028944491100
C   -0.244692040100  2.918251905700  0.758328351500
C   -1.514611541800  3.415299673600  0.697202148000
C   -2.575690101400  2.621139515100  0.213441321100
C   -2.322261687000  1.277528172700 -0.173305012100
C   -3.379949128500  0.526822456600 -0.731280878600
C   -4.631582506200  1.062690430800 -0.856371804800
C   -4.891372341900  2.374748240500 -0.432116673600
C   -3.882429318300  3.137980084100  0.084466386000
O    1.036909832500  0.122299621700 -1.827759261000
C    0.332671045600 -0.909695546100 -1.252670155100
C    0.656650198000 -2.224706728400 -1.628927002900
C   -0.018119518700 -3.279456992100 -1.086869829600
C   -0.679760926100 -0.653806296800 -0.348365383300
C   -1.338875353100 -1.744815820000  0.282408093600
C   -1.012092771600 -3.071588759500 -0.107308757200
C   -1.675228311200 -4.153104599000  0.510218624200
C   -2.600279312400 -3.940845093300  1.493413746100
C   -2.890029585100 -2.633262248300  1.911720037300
C   -2.275727653400 -1.562713718800  1.323430855700
C    4.539609787300 -0.147405635100 -0.998812633200
C    5.574637218700  0.395258718400  0.004038456100
C    4.852527463800  1.175434368700  1.097405087200
C    3.949417479300  0.228883473100  1.890996560200
C    3.248524348700 -0.752188392100  0.931928988600
H    0.586328954900  3.521584562900  1.092238238200
H   -1.717620196700  4.433452951100  0.995109692500
H   -3.185644154400 -0.479453345100 -1.070317265700
H   -5.429241930600  0.476120085600 -1.288377698400
H   -5.888523086000  2.778449255700 -0.529581433200
H   -4.065771667200  4.156925886200  0.394366132700
H    1.444208356900 -2.364331130300 -2.354072842600
H    0.219401987300 -4.290743493200 -1.383497594800
H   -1.427419179300 -5.156527125400  0.194222992200
H   -3.102690379900 -4.774226372300  1.962371558400
H   -3.602284123100 -2.475781203000  2.708611025000
H   -2.496723644800 -0.561197675300  1.660474867800
H    4.469174657400  0.505162351000 -1.874079244000
H    4.839599053300 -1.143624596500 -1.347993696600
H    6.292999125100  1.032122426100 -0.512873455500
H    6.123575118400 -0.430493506600  0.460438837900
H    5.567872877400  1.660776886200  1.762620112900
H    4.244025786000  1.956614195300  0.631505867800
H    4.541048055200 -0.335824619000  2.613481610600
H    3.206467026700  0.809359774200  2.439414593500
H    2.231782594900 -0.962242269900  1.265987169400
H    3.790847518100 -1.703247501100  0.893616471600
