51
-78.48136503
N    3.101798086400 -0.272063037200  0.116320540400
P    2.141868795300  1.013780228600 -0.499197012900
O    1.168087178400  1.068757796100  0.843087064700
C   -0.107244822000  1.552205458700  0.634325697900
C   -1.060683112800  0.734241075300  0.063233489100
C   -0.412936926800  2.861243963600  1.040453104000
C   -1.672600270800  3.355569948900  0.859504741000
C   -2.662608185500  2.583849218700  0.215708870100
C   -2.353074974500  1.262497113800 -0.205846809300
C   -3.332023031300  0.537827452500 -0.920518151900
C   -4.565118526700  1.075600737900 -1.164336991000
C   -4.884875448600  2.363422981800 -0.707695411300
C   -3.950257030400  3.102291031800 -0.038575622000
O    1.177472959800  0.167860744000 -1.537540783400
C    0.410246559600 -0.884978520000 -1.076809823000
C    0.759550434300 -2.183555102400 -1.481599554400
C    0.022346312700 -3.253995716700 -1.065841139500
C   -0.691206141900 -0.656200478200 -0.277605360400
C   -1.420912316300 -1.767541556700  0.229184454200
C   -1.066176197800 -3.079018266600 -0.186047453100
C   -1.801023760100 -4.179110427400  0.304836449700
C   -2.824508309300 -3.999923301200  1.192297466900
C   -3.146397322200 -2.709178706200  1.638519551900
C   -2.463312630000 -1.621034958100  1.170627609100
C    4.090291867100 -0.741319522700 -0.848708562800
C    5.504286181400 -0.206051602100 -0.579378120200
C    5.408330345500  1.171956905000  0.065084003800
C    4.731478122100  1.057484347800  1.435941508900
C    3.690510950900 -0.073670507100  1.426233334300
H    0.368264651900  3.450341722300  1.497538918500
H   -1.918583494400  4.355953117300  1.184096356400
H   -3.090367460700 -0.449196893500 -1.284710248400
H   -5.301411002100  0.509618711400 -1.716136179700
H   -5.867493813300  2.768354608400 -0.900728935900
H   -4.177772174600  4.103367301400  0.299036611500
H    1.614604986600 -2.301853563500 -2.129675335300
H    0.280017104900 -4.252726318600 -1.387034826700
H   -1.529271775100 -5.170117890500 -0.030034642200
H   -3.381564793300 -4.847125543100  1.564908502400
H   -3.938897604200 -2.579066113500  2.361101569600
H   -2.710858073700 -0.633471349700  1.529417776100
H    3.753831137700 -0.431820273700 -1.843746967600
H    4.094937264400 -1.838554102600 -0.820531675000
H    6.059215312500 -0.154853226500 -1.516978013400
H    6.039991525600 -0.880019549900  0.091797294400
H    6.399087530500  1.616540713200  0.169592253000
H    4.819497257000  1.822646849500 -0.587791135500
H    5.473308576200  0.852371550400  2.209720257700
H    4.241303397800  2.002472665800  1.678991333200
H    2.887588425100  0.138512734100  2.132971178900
H    4.151817543900 -1.023832132800  1.713677742600
