51
-78.48648320
N    3.321459651600  0.659510138200  0.117245542100
P    2.064311600800  1.506358166000 -0.575538036200
O    1.075756236000  1.483657374700  0.763586113800
C   -0.247095289900  1.809274269000  0.547833244300
C   -1.111965801500  0.859584333700  0.044717448300
C   -0.685960823700  3.102178566800  0.878212931600
C   -1.992744737700  3.447381144200  0.693165368200
C   -2.901267214000  2.536543579800  0.112690245200
C   -2.456820242600  1.233326850400 -0.237189498100
C   -3.358387689300  0.373133629500 -0.900762503900
C   -4.643852056200  0.763248745500 -1.156671021600
C   -5.095776149500  2.032045255000 -0.764692076800
C   -4.238500137800  2.901292363600 -0.150607679100
O    1.224048579400  0.395775119700 -1.504168084800
C    0.517638049200 -0.670504976600 -1.009472562500
C    0.950638378500 -1.956705837200 -1.384679294400
C    0.299926464900 -3.065745090500 -0.932000335200
C   -0.607781970600 -0.501603287100 -0.224728048100
C   -1.241034486600 -1.650930628200  0.329098514500
C   -0.786350149300 -2.945037059900 -0.039452949000
C   -1.422915881300 -4.080831976300  0.502989155700
C   -2.447632871800 -3.950889608000  1.397892313200
C   -2.867619389600 -2.673981983000  1.798913243800
C   -2.280634215800 -1.553233405100  1.279739863200
C    4.681096020600  1.081110631200 -0.134407205100
C    5.509643795700 -0.085636743000 -0.671188590700
C    5.465103744100 -1.242924225600  0.324357764700
C    4.014236707100 -1.636250480500  0.593085424100
C    3.218520066200 -0.422481577200  1.073016127700
H    0.035312782100  3.796340760200  1.282895849700
H   -2.341653046200  4.433258185800  0.963096347000
H   -3.017435527900 -0.600587870200 -1.218133492600
H   -5.318879982500  0.093367466900 -1.669093407900
H   -6.117422538500  2.319782132400 -0.965189733500
H   -4.567324919900  3.890519600000  0.134387773800
H    1.798714705300 -2.027966638800 -2.049474360100
H    0.624448205700 -4.051400424800 -1.232046722400
H   -1.074295438500 -5.058671999700  0.202338928900
H   -2.929275638800 -4.825189087900  1.810728788300
H   -3.658869803600 -2.579309929600  2.528342221300
H   -2.602638321300 -0.575935119600  1.606162565300
H    5.134637333200  1.448471434400  0.797311657200
H    4.654799873700  1.902695372300 -0.854343705900
H    6.538075504600  0.239555827100 -0.835480505000
H    5.092348910000 -0.406957672000 -1.627819979700
H    6.019369013500 -2.098520243200 -0.066156068600
H    5.937007739900 -0.933203497500  1.260107605100
H    3.563457170500 -2.015512880300 -0.325506013400
H    3.962293096200 -2.422619821000  1.348255588400
H    3.610112074000 -0.087224967700  2.044450735500
H    2.166671445700 -0.683975346600  1.204122212200
