51
-78.48091642
N    3.106640551100 -0.279798288500  0.072704669400
P    2.143361591000  1.006961153200 -0.531556265300
O    1.174295673100  1.081938800700  0.813362510200
C   -0.101838220500  1.564662382500  0.598982452100
C   -1.058643971400  0.738400521200  0.046484697400
C   -0.403106971400  2.881393755700  0.982347575400
C   -1.662956190800  3.374337728200  0.798415673600
C   -2.657529892700  2.592410127800  0.174324594900
C   -2.351773242900  1.263416848400 -0.225170170100
C   -3.335297676700  0.526810753300 -0.921038073300
C   -4.569372603900  1.061207734000 -1.167253340800
C   -4.885303399100  2.357378897300 -0.732050664500
C   -3.946211493100  3.107423329000 -0.081889886200
O    1.166039362800  0.152575468200 -1.556073811200
C    0.405733955500 -0.895485111900 -1.076819559600
C    0.756357200700 -2.200484924600 -1.459967237400
C    0.023333339300 -3.265209461600 -1.022410849800
C   -0.691397767100 -0.657213997500 -0.273961170200
C   -1.416662887900 -1.760700597700  0.254771951800
C   -1.061909169000 -3.078118042100 -0.141158637500
C   -1.793257241800 -4.171142928800  0.370426347200
C   -2.812742209700 -3.979022481400  1.259762262400
C   -3.133826613100 -2.681760685000  1.687500216400
C   -2.454330398600 -1.600384095000  1.199283365900
C    4.167734369300 -0.615331950200 -0.860787348500
C    5.268001661000  0.460493944200 -0.918632505000
C    5.301399987900  1.248537179800  0.393498271100
C    5.028110955000  0.304433000700  1.557900325500
C    3.593932578700 -0.238912777900  1.442787286600
H    0.381047079600  3.477771747200  1.424724194500
H   -1.905627729500  4.381029833800  1.105448739700
H   -3.096434539200 -0.466802819500 -1.268719158800
H   -5.309343298000  0.486024902200 -1.704406127700
H   -5.868747246000  2.759592818400 -0.926509738600
H   -4.171050675400  4.114586926100  0.238939462400
H    1.609032202400 -2.330279780800 -2.108988218300
H    0.282344086000 -4.268666227900 -1.327403859200
H   -1.522209592600 -5.166999711500  0.049648527100
H   -3.367377762600 -4.820769092100  1.648054469400
H   -3.922853320300 -2.541303064100  2.411954168200
H   -2.701183961900 -0.607447951600  1.543488797900
H    3.719306903000 -0.748678129500 -1.848801730900
H    4.583998757800 -1.577047995500 -0.544193752400
H    5.076614189600  1.142986486100 -1.748779051100
H    6.232088133400 -0.020725518300 -1.091328649700
H    6.266407993800  1.743219999200  0.511745520800
H    4.528421109200  2.023461575100  0.380323851000
H    5.746881844300 -0.516795688000  1.527773418300
H    5.148152453500  0.820981341400  2.510932382100
H    2.904057665000  0.373707770700  2.023519175700
H    3.547674092900 -1.261308383700  1.839857225800
