51
-78.48016825
N    3.355536810800  0.061576687000 -0.545510060800
P    2.143124133300  1.140412043200 -0.971568295700
O    1.302866053400  1.153460879800  0.474645744900
C   -0.000110132000  1.598334088900  0.418046886500
C   -0.995499103400  0.749522991500 -0.021342194800
C   -0.285374456800  2.906407787700  0.843553780700
C   -1.568938014600  3.368137316200  0.817049505000
C   -2.611567221000  2.564935115100  0.307766804200
C   -2.323936335100  1.246783484300 -0.137382029000
C   -3.363795286100  0.495526207900 -0.726955314000
C   -4.629951316000  1.002788705100 -0.823675380300
C   -4.923489322700  2.285758300800 -0.337903374400
C   -3.932192149200  3.051506974400  0.208452611900
O    1.087254203700  0.195794656400 -1.843252445200
C    0.377386105200 -0.850135137900 -1.303367069800
C    0.690799639400 -2.147257007500 -1.749163552100
C    0.010746366500 -3.225191133300 -1.264347421000
C   -0.640832899200 -0.634545644300 -0.394828546600
C   -1.297342186400 -1.756740576700  0.186119295200
C   -0.976935288600 -3.063442655300 -0.269300664900
C   -1.640155422900 -4.172440146200  0.296577485900
C   -2.559219984900 -4.006867127300  1.294466205900
C   -2.840959172300 -2.721118325300  1.779470310000
C   -2.226500873700 -1.624394372400  1.241114936300
C    3.218121413100 -1.018123978700  0.418052840000
C    4.190447081900 -0.849364225300  1.595780980800
C    4.455084811900  0.636275313700  1.817572079600
C    5.208482584800  1.210705935700  0.613110081400
C    4.716215200300  0.536022993200 -0.678605703000
H    0.532615068700  3.519403799200  1.191663711000
H   -1.798248342900  4.366215970600  1.160396027200
H   -3.145293777800 -0.487795458600 -1.114935904400
H   -5.412804814700  0.415655968900 -1.281287947300
H   -5.931617040600  2.666371735400 -0.412656619200
H   -4.140554388600  4.050397675200  0.564489539100
H    1.475078806600 -2.251958651400 -2.483925712700
H    0.238856167100 -4.220118118200 -1.617891189700
H   -1.397029302300 -5.159461780100 -0.070484797600
H   -3.061901730600 -4.861055428600  1.723972055200
H   -3.546811143200 -2.600871181400  2.588420714900
H   -2.441363410300 -0.640758220000  1.630518629500
H    3.402052105900 -1.975306887700 -0.089025163400
H    2.189101577100 -1.025814333100  0.782688980500
H    5.134022164800 -1.355737448700  1.383332256200
H    3.759237118600 -1.302361925000  2.489395136500
H    3.495659224800  1.145716117700  1.929175308100
H    5.029018387800  0.793896838700  2.731735036300
H    5.039764624000  2.287320194800  0.558028029500
H    6.280921247100  1.040949580000  0.722126486000
H    5.348423824300 -0.323734403000 -0.925159568400
H    4.752576356700  1.235003214500 -1.516908478700
