51
-78.48543111
N    3.138146108000  0.391702164900 -0.064870173500
P    2.027175132400  1.544484956200 -0.679699108700
O    1.093837723300  1.542936923500  0.691418773100
C   -0.238538896600  1.857523715800  0.512008863300
C   -1.100297448900  0.903354072100  0.011815858500
C   -0.691257861000  3.134604850600  0.880146895100
C   -2.009167873100  3.459189287800  0.733165004600
C   -2.917053190200  2.542073884900  0.163088980700
C   -2.458748632600  1.252932134100 -0.220978986600
C   -3.364600256500  0.380535182200 -0.863199345500
C   -4.664684093200  0.748147214700 -1.072656953000
C   -5.127431881900  2.004504389700 -0.652461255200
C   -4.269016088700  2.883360679400 -0.054153336600
O    1.127889833600  0.567962404900 -1.661969970200
C    0.516688932500 -0.557394063600 -1.141830477400
C    1.006456372000 -1.815372706500 -1.528711271100
C    0.432883843300 -2.954680780700 -1.043332047400
C   -0.569149778000 -0.441265426200 -0.298153806600
C   -1.127520054800 -1.616454032400  0.277094010600
C   -0.625396636000 -2.886834286100 -0.113283549400
C   -1.188412875600 -4.052151483400  0.449114194100
C   -2.185674867800 -3.970968235500  1.379765280100
C   -2.652575494300 -2.715758889500  1.798556317600
C   -2.137900994200 -1.567976762400  1.262561641900
C    3.687637638900  0.544028583500  1.269584410700
C    4.211109301500 -0.812393462700  1.739553621200
C    5.285849561000 -1.315851347700  0.778820306600
C    4.723885885900 -1.353775332700 -0.640220326300
C    4.176770015500  0.022769782300 -1.012867629100
H    0.026033165800  3.835433550600  1.280653747400
H   -2.367495605000  4.434367144000  1.028460123200
H   -3.014030042600 -0.583447917300 -1.199392283600
H   -5.344056376500  0.070555030700 -1.568881286300
H   -6.160306402300  2.274188967300 -0.817323465100
H   -4.608663040700  3.861765685300  0.254405605600
H    1.834354457200 -1.848567540700 -2.220504884500
H    0.799687911900 -3.923952550900 -1.348580174700
H   -0.806155399700 -5.012554301600  0.133534458700
H   -2.610939653600 -4.867404266500  1.806901761500
H   -3.422727729900 -2.660449802900  2.554139465800
H   -2.495233165000 -0.606819508600  1.599957306400
H    2.898079781400  0.898017552700  1.932749190800
H    4.511362779800  1.275294089400  1.279639569300
H    3.380246475100 -1.520333532800  1.763230992700
H    4.613984973200 -0.716917853300  2.749453280700
H    6.146532411600 -0.642653226700  0.811462119900
H    5.623392874400 -2.310114151600  1.077148823200
H    5.497263995200 -1.645851580700 -1.353014372000
H    3.912354486100 -2.081809629100 -0.687223834600
H    3.739713244700  0.009780156200 -2.015539313200
H    5.000363215100  0.754190213700 -1.009261304200
