51
-78.48888416
N    3.093192121900 -0.233913945600  0.083356704000
P    2.114410566600  1.042142568600 -0.524832294800
O    1.147185539900  1.095201832000  0.822454733600
C   -0.132414092000  1.569453183900  0.613167821600
C   -1.081954313800  0.740181620000  0.052400588300
C   -0.444928702500  2.880065897600  1.008417598800
C   -1.708160450200  3.364768129500  0.826081500100
C   -2.694950240700  2.580964317400  0.191993412900
C   -2.378523082400  1.257474227900 -0.217557432500
C   -3.354937329000  0.519526850100 -0.921964013500
C   -4.591738665100  1.047583605400 -1.168277777500
C   -4.917857085900  2.338192015200 -0.724182050700
C   -3.986210875600  3.089216547800 -0.064491408200
O    1.151252799900  0.179570135600 -1.552478613700
C    0.397523546100 -0.876857090000 -1.078307879100
C    0.757122434200 -2.176784347800 -1.469963694200
C    0.031277035600 -3.249304540700 -1.039717744500
C   -0.703050314700 -0.650465609100 -0.276869029100
C   -1.420851216700 -1.762581682300  0.244535285200
C   -1.055542532200 -3.075145167300 -0.157834259400
C   -1.777745073600 -4.176677577200  0.348365671800
C   -2.798972856000 -3.997319019900  1.238365764700
C   -3.131492349900 -2.704751078500  1.671413769600
C   -2.460962013300 -1.615398871000  1.188448670300
C    4.117002946200 -0.622533891500 -0.874396977600
C    5.300254002000  0.344280801100 -0.908723465600
C    5.893174379200  0.499882051600  0.488795874000
C    4.797805337300  0.920202182900  1.464455359600
C    3.645982819300 -0.082575687600  1.416712828100
H    0.333811737100  3.477944050500  1.458203501600
H   -1.959551937100  4.366591696200  1.141923309800
H   -3.108282985100 -0.469843983100 -1.276295479200
H   -5.326099733400  0.471626234300 -1.712259302300
H   -5.903129836100  2.735553684900 -0.919383586600
H   -4.218821464000  4.092378250000  0.263311228300
H    1.610653679000 -2.296661072300 -2.119678668600
H    0.297480210600 -4.248961012400 -1.350863033000
H   -1.498016571700 -5.168711554000  0.023255611900
H   -3.346129784900 -4.845579268900  1.623054625500
H   -3.922094238600 -2.574210452800  2.396000094500
H   -2.716540936000 -0.626258492800  1.537130215400
H    3.650507875400 -0.674496731700 -1.862586762500
H    4.462188718100 -1.626346061200 -0.600385659100
H    4.945207229600  1.315443601400 -1.265037375900
H    6.054016203200 -0.023793461100 -1.607230237300
H    6.319084428700 -0.453346238600  0.811798354200
H    6.694905647000  1.241080268600  0.476799937900
H    5.191125711500  0.980862148600  2.480816203300
H    4.412575748600  1.904882770800  1.183203542700
H    2.840834241500  0.225139299400  2.085044913200
H    3.999840954500 -1.070319905500  1.735252931600
