51
-78.48775027
N    3.341904406600  0.092830357600 -0.535030543300
P    2.116773940100  1.154998754900 -0.974180958600
O    1.281478297000  1.161492322000  0.470507745400
C   -0.024101345100  1.602272592700  0.409669771800
C   -1.015300564800  0.747503481700 -0.027225163700
C   -0.315204422200  2.911824234900  0.826089077400
C   -1.600411181200  3.368940832000  0.793533489500
C   -2.638821343600  2.559076955400  0.286276186400
C   -2.345228343600  1.239277031200 -0.149915401900
C   -3.380356672900  0.480863961400 -0.738650152000
C   -4.647894019100  0.983081146900 -0.842849094700
C   -4.947507812000  2.267898486400 -0.365712548000
C   -3.960839742800  3.040400822300  0.179503233200
O    1.074157729900  0.189410767700 -1.841452892300
C    0.366643770000 -0.854754311400 -1.296642623500
C    0.685663183700 -2.153944076100 -1.733764988700
C    0.006357071700 -3.230878250900 -1.245628172600
C   -0.655457882600 -0.637259051800 -0.392418579300
C   -1.310736206700 -1.758074485900  0.192324280000
C   -0.986436208300 -3.066311090300 -0.256078520600
C   -1.651110527300 -4.173840640900  0.311016867700
C   -2.574987975300 -4.005376002700  1.303931752100
C   -2.859430278200 -2.718104044800  1.783409163600
C   -2.243786616500 -1.622823168500  1.243593003500
C    3.234030638400 -0.898930349500  0.516464264200
C    3.778005847500 -0.369214483600  1.843722249600
C    5.218981211900  0.103769237400  1.667130619200
C    5.288961103900  1.139767689300  0.547599474000
C    4.701298781800  0.551700280600 -0.734424971900
H    0.499478139900  3.530216272800  1.172408052200
H   -1.834047248500  4.368370474800  1.129959319500
H   -3.157038000500 -0.503913282200 -1.120088131700
H   -5.427018399800  0.390513808400 -1.299810494000
H   -5.956683665200  2.644511484800 -0.446337459200
H   -4.174025392000  4.040680128700  0.528703564200
H    1.474336142200 -2.260820016100 -2.463389845500
H    0.238943888000 -4.227108008200 -1.592446907200
H   -1.405374802900 -5.161961873600 -0.051334716600
H   -3.079392442100 -4.858351228100  1.733845530900
H   -3.568714599100 -2.595563958700  2.589008190400
H   -2.460833607000 -0.637992134200  1.628653503000
H    3.807044014800 -1.783046430000  0.207820516200
H    2.187675079700 -1.191042513600  0.624756176900
H    3.721191080800 -1.155164429600  2.599226054800
H    3.154518966000  0.466503317600  2.167579763100
H    5.590398442300  0.531532419200  2.600533799200
H    5.852662111800 -0.749234045200  1.411125328100
H    4.705859086000  2.020790936400  0.826982977100
H    6.321088965400  1.448303513900  0.373484310000
H    5.309863056800 -0.300377186300 -1.062097131300
H    4.692206567900  1.298643195100 -1.532200581300
