51
-78.47989278
N    3.313997643500 -0.057396627400 -0.495204373500
P    2.158975171800  1.080239167600 -0.953334216700
O    1.308374252200  1.120846704900  0.475434054800
C    0.011311064600  1.585203565800  0.402023654400
C   -0.991955728000  0.745184554100 -0.035959755000
C   -0.260288873100  2.900581988100  0.812713914600
C   -1.538046708000  3.378154067900  0.772323327500
C   -2.587507941000  2.582727951600  0.265217090100
C   -2.313513515800  1.256310558700 -0.163843217500
C   -3.359266139200  0.509641687100 -0.748865430700
C   -4.618749355300  1.030610374400 -0.858134174400
C   -4.899061503000  2.323140919100 -0.389892939300
C   -3.901785949900  3.083700304100  0.152780907300
O    1.081007881000  0.171091264700 -1.844963103400
C    0.372646752700 -0.871949708600 -1.299062910400
C    0.692875213600 -2.174957438000 -1.721937573000
C    0.012607134700 -3.246554336100 -1.222661385900
C   -0.647734607200 -0.645497455800 -0.395172608700
C   -1.307466663800 -1.758605493500  0.197380293800
C   -0.982750214500 -3.071468607400 -0.237656063400
C   -1.648542889700 -4.172884294800  0.340151608200
C   -2.573871769100 -3.993869050300  1.329799837500
C   -2.860177725100 -2.701504052400  1.794559764400
C   -2.243617629600 -1.611982860000  1.244456185600
C    3.202662944000 -0.900668069600  0.675840934800
C    3.688708865100 -0.174076390900  1.945283658100
C    4.593371787200  0.998587214100  1.560767884600
C    5.526455738800  0.576316590600  0.430929481900
C    4.693162407900  0.253383456400 -0.822970241300
H    0.562187020500  3.507137761700  1.161513765300
H   -1.756893781600  4.382676008700  1.103474388800
H   -3.150163450800 -0.481235565200 -1.122600574000
H   -5.406590332000  0.447090775300 -1.311771238000
H   -5.902173361300  2.714749559600 -0.474768561500
H   -4.100401174200  4.089061812700  0.495918410000
H    1.483181334100 -2.290124997600 -2.448526632600
H    0.246784198300 -4.246722989600 -1.557022468200
H   -1.402318688800 -5.164860704700 -0.011204901700
H   -3.078331600600 -4.842328157700  1.768493442300
H   -3.571432095900 -2.570665318400  2.597128348200
H   -2.462081969900 -0.622892662400  1.617725794000
H    3.812888577000 -1.791670279800  0.488867542100
H    2.166277789100 -1.223382318700  0.787496727600
H    4.236007986800 -0.878221614100  2.574316504200
H    2.835441888800  0.197582228600  2.513861997500
H    3.978969395400  1.835706757400  1.218856132900
H    5.164351440700  1.332659643500  2.428081033200
H    6.241860216200  1.368004350100  0.206692181800
H    6.087831589100 -0.305585399100  0.745070162100
H    5.130468120200 -0.602341263900 -1.353966916000
H    4.680683604400  1.102734922000 -1.510985004400
