82
SIG-NIHDA-2062 | MMFF94/ETKDGv3 ensemble | attach_idx=3 axis_idx=2 relative_energy_kcal_mol=0.00000000 boltzmann_weight=0.9388778931
C   -0.4084324313  1.2304428328 -2.0020323920
C   -1.3913654917  0.8908349755 -0.8608767214
N   -0.7898889702  0.0922996721  0.2723436330
P    0.4144684105  0.7869684410  1.2764975854
O    1.3923653575  1.4827274278  0.1941725093
C    2.6565675353  1.8551388378  0.5883921734
C    3.6743879230  0.8882621518  0.6927930280
C    2.8728675226  3.2202360549  0.7817239100
C    4.1287516273  3.6691239308  1.1584052911
C    5.1659206841  2.7602306273  1.3796559311
C    4.9518526476  1.3676374977  1.1755894320
C    6.0266938352  0.5124685998  1.5267425237
C    7.2581534611  0.9968710183  1.9766801416
C    7.4543092145  2.3617563435  2.1131268084
C    6.4110594075  3.2367263275  1.8236552908
O    1.2970151610 -0.5276406649  1.6289128270
C    2.2222310549 -1.1300913836  0.7981736158
C    1.9973666680 -2.4950216858  0.5962341250
C    2.8672064696 -3.2451589270 -0.1787029063
C    3.3811487096 -0.4767830714  0.3070462963
C    4.2199409369 -1.2550824327 -0.5808475019
C    3.9615746114 -2.6382747056 -0.7910178944
C    4.7870921686 -3.4082024769 -1.6283415074
C    5.8560043633 -2.8340856315 -2.3094814945
C    6.1003017476 -1.4777274145 -2.1726814344
C    5.2904620033 -0.7061714261 -1.3337936691
C   -1.8670548782 -0.7236225107  0.9503204351
C   -2.4142309739 -1.8601032487  0.0518937533
C   -1.5246181343 -2.5185381573 -0.8232866577
C   -1.9525150408 -3.5535914172 -1.6451149496
C   -3.2793413881 -3.9637503474 -1.6024318478
C   -4.1947260402 -3.3533055531 -0.7346195970
C   -3.7770457527 -2.2948344210  0.1155804258
C   -4.7583042275 -1.7398645374  0.9744480678
C   -6.0799626281 -2.1945195526  0.9860048307
C   -6.4648852978 -3.2238794840  0.1411066480
C   -5.5268874863 -3.7994702911 -0.7119502546
C   -1.5181954553 -1.4052924891  2.2973006502
C   -2.2481759267  2.1150745430 -0.4696892584
C   -1.5977445042  3.2745804783  0.0029344815
C   -2.3070064998  4.3972146524  0.4136173568
C   -3.6925839035  4.3968320762  0.3498911540
C   -3.6801350760  2.1332145018 -0.5840550948
C   -4.3867250184  3.2888618988 -0.1484020266
C   -5.7894371868  3.3433092853 -0.2189852456
C   -6.5274327463  2.2800338181 -0.7289411322
C   -5.8667231167  1.1518087279 -1.1842063471
C   -4.4710230822  1.0843364178 -1.1177564280
H    0.2210352416  0.3670525071 -2.2451823851
H    0.2379375370  2.0858836149 -1.7922584706
H   -0.9683102941  1.4872686098 -2.9101328824
H   -2.0470095812  0.1961589355 -1.3858769610
H    2.0624693283  3.9282678300  0.6360747956
H    4.2820998242  4.7356682595  1.3071933724
H    5.9108363870 -0.5683870638  1.4668820081
H    8.0554427445  0.3009034581  2.2241001370
H    8.4087456817  2.7456387405  2.4625519762
H    6.5749711217  4.3034741451  1.9636961739
H    1.1350930678 -2.9760304604  1.0491654121
H    2.6608456452 -4.3032577230 -0.3222889620
H    4.5917480431 -4.4694422502 -1.7700967319
H    6.4802537433 -3.4410045345 -2.9592010894
H    6.9141181182 -1.0090577916 -2.7196741850
H    5.5033891042  0.3604650416 -1.2896011494
H   -2.6762261209 -0.0233106858  1.1804459254
H   -0.4827401211 -2.2103204957 -0.8789572669
H   -1.2513432121 -4.0375831550 -2.3195440727
H   -3.5946708968 -4.7750529755 -2.2551270171
H   -4.5141950338 -0.9284296650  1.6549338231
H   -6.8032304670 -1.7376021679  1.6564486578
H   -7.4905782435 -3.5820176245  0.1460699783
H   -5.8461019337 -4.6096093831 -1.3646037653
H   -0.7101969806 -2.1352726708  2.1936432986
H   -2.3796330719 -1.9520507729  2.6990801245
H   -1.2435051208 -0.6769384822  3.0668821118
H   -0.5139853767  3.3203884710  0.0522926598
H   -1.7779884815  5.2716995114  0.7823683811
H   -4.2296035685  5.2835770040  0.6797454114
H   -6.3233561774  4.2281829826  0.1218449794
H   -7.6108841836  2.3385133070 -0.7779376104
H   -6.4270167844  0.3143765748 -1.5928640010
H   -4.0217102032  0.1758696053 -1.5061012426
