82
SIG-NIHDA-2062 | MMFF94/ETKDGv3 ensemble | attach_idx=3 axis_idx=2 relative_energy_kcal_mol=4.26881290 boltzmann_weight=0.0006975053
C   -3.8563713312  0.9655836153 -2.5471201337
C   -3.3309313904  0.9340838151 -1.0973237422
N   -2.1694547570  0.0305976327 -0.8564546877
P   -0.7190724759  0.4555720924 -1.7060962360
O    0.1926679352 -0.8572568888 -1.4843580660
C    1.5538522737 -0.7841296978 -1.6500862163
C    2.3633894549 -0.1944723314 -0.6599157825
C    2.0674849810 -1.4167314518 -2.7832643055
C    3.4346695071 -1.4230666106 -3.0073819804
C    4.2959906149 -0.7704603462 -2.1234264830
C    3.7782210051 -0.1324851800 -0.9605808055
C    4.7134622012  0.5933515837 -0.1801583644
C    6.0787554783  0.6279509679 -0.4780104012
C    6.5600800441 -0.0491529129 -1.5868090957
C    5.6717558169 -0.7373077888 -2.4082698251
O   -0.0373395510  1.4757909753 -0.6520809831
C    0.6057271461  1.1214196897  0.5146069647
C    0.1127741840  1.7743605882  1.6478654947
C    0.6750621138  1.5455196664  2.8930435492
C    1.7494427089  0.2868999332  0.5624569109
C    2.2457192454 -0.0260844293  1.8856158327
C    1.7157573724  0.6295007183  3.0319684267
C    2.2129782127  0.3503956414  4.3165547003
C    3.2052879490 -0.6057340210  4.5112134832
C    3.7005911817 -1.3045391190  3.4225419187
C    3.2211805793 -1.0242739092  2.1396402980
C   -2.4984988953 -1.4342128784 -0.7853304226
C   -1.6379747988 -2.1741386823  0.2647171104
C   -1.5194785344 -1.5952360804  1.5460119491
C   -0.7522638705 -2.1913120135  2.5381258719
C   -0.0911342165 -3.3840597814  2.2743530719
C   -0.1995032537 -4.0067830557  1.0238427754
C   -0.9849678669 -3.4188144829 -0.0035153347
C   -1.0556973056 -4.1187077997 -1.2338134487
C   -0.3792173713 -5.3241566923 -1.4433597546
C    0.3896749357 -5.8721088892 -0.4281894515
C    0.4769647081 -5.2168822097  0.7971012937
C   -3.9521746145 -1.8445222042 -0.4527269964
C   -3.2271765422  2.2829419849 -0.3475452798
C   -3.6253448946  2.2287377362  1.0136435030
C   -3.6515371749  3.3589935458  1.8192088779
C   -3.2682190146  4.5810276368  1.2893568079
C   -2.7963581772  3.5398713845 -0.8844569987
C   -2.8384776868  4.6867152535 -0.0391712804
C   -2.4429437711  5.9483622114 -0.5148863561
C   -1.9856086748  6.1174350237 -1.8169201786
C   -1.9120903699  5.0198779814 -2.6566740018
C   -2.3073592160  3.7590001077 -2.1960896326
H   -4.2606339788 -0.0109995980 -2.8341823111
H   -3.0934645464  1.1972174967 -3.2920564114
H   -4.6660064273  1.6962517370 -2.6522299969
H   -4.1922461485  0.5013847438 -0.5769281142
H    1.3969416951 -1.9095603111 -3.4810642807
H    3.8185460428 -1.9206676975 -3.8947813151
H    4.3795957904  1.1676839537  0.6822779042
H    6.7564750075  1.1911913014  0.1579654270
H    7.6197939828 -0.0270345829 -1.8247678860
H    6.0638565932 -1.2402274539 -3.2900376875
H   -0.7157451964  2.4690695662  1.5479223357
H    0.2645908712  2.0644381922  3.7554382980
H    1.8144148357  0.8697911750  5.1857063301
H    3.5737395630 -0.8158987922  5.5111973616
H    4.4555113812 -2.0737709271  3.5606763159
H    3.6133007599 -1.6264468844  1.3217480831
H   -2.3177431587 -1.8374156612 -1.7868825485
H   -2.0081047818 -0.6479366208  1.7627111405
H   -0.6490975129 -1.7131545340  3.5078975410
H    0.5199903365 -3.8227276325  3.0597652562
H   -1.6411646458 -3.7370319874 -2.0637182090
H   -0.4548213010 -5.8288126895 -2.4026551465
H    0.9206515407 -6.8065313721 -0.5856190410
H    1.0837728533 -5.6611626494  1.5832765211
H   -4.2843195554 -1.4395268281  0.5102935287
H   -4.0445439218 -2.9361250566 -0.3890145434
H   -4.6557640061 -1.5272500838 -1.2273190050
H   -3.9259548809  1.2793272415  1.4554171363
H   -3.9697333930  3.2857790826  2.8552115477
H   -3.2964406869  5.4582918830  1.9323266389
H   -2.4818335055  6.8194225481  0.1362912167
H   -1.6775811110  7.0985936250 -2.1663581906
H   -1.5381590300  5.1327725419 -3.6708976497
H   -2.1901173593  2.9437059456 -2.8954628420
