70
SIG-NIHDA-2067 | MMFF94/ETKDGv3 ensemble | attach_idx=3 axis_idx=2 relative_energy_kcal_mol=2.49204886 boltzmann_weight=0.0043228681
C    3.7596026560 -3.2422599833  0.1130670594
C    2.8676281761 -2.3904734743  1.0411190430
N    2.2560471174 -1.2048257514  0.3828121438
P    1.2036105237 -1.5512814101 -0.9484879695
O    1.0502922163 -0.1002609034 -1.6412565600
C   -0.0104858793  0.1452492499 -2.4797792178
C   -1.2948358916  0.3892279270 -1.9540994127
C    0.2919558192  0.2379063700 -3.8393908957
C   -0.7132386238  0.5218689192 -4.7496307460
C   -2.0311506224  0.6803867524 -4.3168890036
C   -2.3442545326  0.5937030608 -2.9304930688
C   -3.7212992761  0.6587379684 -2.5985685850
C   -4.7185732105  0.8725532543 -3.5544504495
C   -4.3759711243  1.0085179033 -4.8899459690
C   -3.0406069083  0.9045922405 -5.2685703675
O   -0.2183848086 -1.6690743089 -0.1853421794
C   -0.9612729124 -0.6131360580  0.2991555852
C   -1.2872653902 -0.7293693025  1.6532057921
C   -2.0615206670  0.2359361449  2.2759626842
C   -1.4764279328  0.4248093828 -0.5156333879
C   -2.1857756840  1.4780865870  0.1794822721
C   -2.4900899888  1.3546168184  1.5640625098
C   -3.2032776432  2.3607489756  2.2381680367
C   -3.5950363479  3.5252763732  1.5846754107
C   -3.2635312634  3.7023235747  0.2514284199
C   -2.5650056716  2.7015217109 -0.4303904264
C    3.1527681233 -0.0152354589  0.2482923056
C    2.4115211534  1.2937753723  0.5569280449
C    1.6756162962  1.4506416001  1.7420662627
C    1.0096712443  2.6465672505  2.0134720956
C    1.0732195150  3.7026087476  1.1076708822
C    1.8090479846  3.5674808208 -0.0671983236
C    2.4789701827  2.3733913138 -0.3393161623
C    4.4410198534  0.0373658607  1.1009898899
C    1.8637944498 -3.2155390344  1.8576113932
C    1.2349115268 -4.3673776092  1.3604918917
C    0.3333654082 -5.0868161720  2.1496727493
C    0.0475141848 -4.6690267083  3.4472053073
C    0.6569705601 -3.5263935331  3.9569880638
C    1.5526038178 -2.8027469890  3.1671596562
H    4.5286839738 -2.6317582365 -0.3709883328
H    4.2742636349 -4.0200628184  0.6894549367
H    3.1976172131 -3.7470877630 -0.6788490055
H    3.5520379628 -2.0464232112  1.8238324880
H    1.3125908343  0.0923531196 -4.1810447199
H   -0.4614499073  0.5896242794 -5.8054602471
H   -4.0441601774  0.5250124344 -1.5675237479
H   -5.7596349356  0.9247037064 -3.2469381215
H   -5.1454021742  1.1745876237 -5.6386719199
H   -2.7935289848  0.9853450151 -6.3253214011
H   -0.9306558879 -1.5851754574  2.2181791780
H   -2.2921957592  0.1204366824  3.3318149849
H   -3.4463237358  2.2502161532  3.2929984385
H   -4.1385371517  4.2973532358  2.1216567876
H   -3.5377010695  4.6178202399 -0.2656289703
H   -2.2951515886  2.9034509137 -1.4653818561
H    3.5154027082  0.0192781348 -0.7896429677
H    1.5966308029  0.6270531121  2.4470354862
H    0.4217690477  2.7447823255  2.9215591333
H    0.5370328282  4.6248926853  1.3122651428
H    1.8520788469  4.3879478389 -0.7778358156
H    3.0378126641  2.2812963124 -1.2671413872
H    4.2278491557  0.0130450753  2.1759853814
H    5.1243258359 -0.7818825929  0.8591871717
H    4.9945097455  0.9652335844  0.9082326932
H    1.4244926879 -4.7153814744  0.3490249225
H   -0.1497779643 -5.9730733061  1.7464348862
H   -0.6546255077 -5.2307998455  4.0571213577
H    0.4313009752 -3.1929880535  4.9662263083
H    2.0086194960 -1.9038771965  3.5771744205
