70
SIG-NIHDA-2067 | MMFF94/ETKDGv3 ensemble | attach_idx=3 axis_idx=2 relative_energy_kcal_mol=4.37134975 boltzmann_weight=0.0001812320
C   -2.2576832488 -1.6841979192  2.1206819882
C   -2.8615516367 -1.0284608437  0.8661888088
N   -1.8826633372 -0.1512841758  0.1172293689
P   -0.6818897961 -0.9767027176 -0.7886926320
O    0.1949102497  0.2348426331 -1.4001897714
C    1.4053570159 -0.0716466905 -1.9761598924
C    2.5282029115 -0.2933941844 -1.1600486446
C    1.4568053906 -0.0711933882 -3.3705854211
C    2.6499204775 -0.3645561207 -4.0118466302
C    3.7868683408 -0.6951325148 -3.2703333253
C    3.7393329487 -0.6876065232 -1.8474736076
C    4.9064622828 -1.1363421342 -1.1798093556
C    6.0711846977 -1.4982348676 -1.8623385885
C    6.1046040733 -1.4441410516 -3.2466713318
C    4.9662144505 -1.0522559093 -3.9456264665
O    0.3177344718 -1.4433178968  0.4015194824
C    1.3141140564 -0.6790958259  0.9834044006
C    1.2538963057 -0.6469226673  2.3799121937
C    2.2081082865  0.0389674743  3.1145613643
C    2.3929779201 -0.0952646954  0.2675142358
C    3.3193912348  0.7000342189  1.0476769717
C    3.2255881480  0.7341266888  2.4663351439
C    4.1372207569  1.4790201509  3.2343758326
C    5.1331663695  2.2399314569  2.6304006766
C    5.2163310658  2.2769558514  1.2486619881
C    4.3198185753  1.5306019465  0.4776688562
C   -2.6165554490  1.0244599900 -0.4522270451
C   -3.0918924359  1.9618099496  0.6714910482
C   -2.2007890287  2.4045153768  1.6643719620
C   -2.6347529420  3.2602118372  2.6769010929
C   -3.9604554658  3.6885064114  2.7069899497
C   -4.8531486994  3.2646156825  1.7237341457
C   -4.4226014361  2.4082117703  0.7089263761
C   -1.9222362637  1.9498426202 -1.4729368740
C   -3.6594440480 -2.0282299579  0.0146123576
C   -3.1771586682 -3.3134853656 -0.2861128770
C   -3.9286518409 -4.2005391119 -1.0611561578
C   -5.1782328290 -3.8219556027 -1.5436777626
C   -5.6796395580 -2.5576228769 -1.2487839811
C   -4.9284053123 -1.6702657349 -0.4747945787
H   -3.0385405873 -2.1963516598  2.6961125341
H   -1.4899283109 -2.4293073652  1.8976791556
H   -1.8254879624 -0.9216987501  2.7767991287
H   -3.6249597394 -0.3804677900  1.3163838556
H    0.5661134019  0.1567830134 -3.9491074993
H    2.6751570169 -0.3632833591 -5.0992497066
H    4.9184427726 -1.2248446646 -0.0947790209
H    6.9447107842 -1.8266194938 -1.3052638324
H    7.0064463780 -1.7240686774 -3.7840131697
H    5.0029453001 -1.0422574603 -5.0332657353
H    0.4597036394 -1.1703727414  2.9018087104
H    2.1275349062  0.0472502586  4.1990826397
H    4.0669280658  1.4851490263  4.3204234394
H    5.8251501906  2.8168766946  3.2373470483
H    5.9700965742  2.8890897370  0.7605492110
H    4.4059454307  1.6247599169 -0.6033967786
H   -3.4969279319  0.6463284510 -0.9862230110
H   -1.1621714724  2.0769037867  1.6488217238
H   -1.9360824160  3.5930511543  3.4397744802
H   -4.2968871013  4.3564377734  3.4954287077
H   -5.8852313390  3.6044578502  1.7461357063
H   -5.1306024163  2.0933531945 -0.0536641163
H   -1.0027269714  2.3932062005 -1.0747073467
H   -2.5789825174  2.7853899539 -1.7480196278
H   -1.7010105655  1.4244211820 -2.4074231728
H   -2.2059623014 -3.6421195296  0.0764808364
H   -3.5355909696 -5.1886036871 -1.2864773562
H   -5.7618338824 -4.5133112749 -2.1454363935
H   -6.6580367713 -2.2617121656 -1.6179786481
H   -5.3486692388 -0.6932448574 -0.2475150626
