70
SIG-NIHDA-2067 | MMFF94/ETKDGv3 ensemble | attach_idx=3 axis_idx=2 relative_energy_kcal_mol=0.38123563 boltzmann_weight=0.1524083691
C   -2.8685282154  1.4013784093 -2.3177030332
C   -3.1144024109  0.4840764577 -1.1004695848
N   -1.8780031836 -0.0469537074 -0.4828234405
P   -0.7084029234  1.0321965881  0.1084162736
O    0.3858596887  0.9239929281 -1.0786408841
C    1.5218669605  1.6806586221 -0.9242786191
C    2.5176207475  1.2884898576 -0.0103404494
C    1.6251827193  2.8094889926 -1.7401723648
C    2.7179548741  3.6507899257 -1.6126649111
C    3.6879470182  3.3990855676 -0.6410944857
C    3.5903702962  2.2423427388  0.1840043650
C    4.5582938705  2.1295309798  1.2141399661
C    5.5991928448  3.0484904578  1.3749869151
C    5.6996417451  4.1335180689  0.5192888497
C    4.7444442440  4.3110001230 -0.4774403256
O    0.0007084656  0.1565770086  1.2567984002
C    1.2274823505 -0.4739663446  1.2506011983
C    1.1997166365 -1.6426620651  2.0249799215
C    2.3235161129 -2.4400841835  2.1552205122
C    2.4245105367 -0.0115057551  0.6355751581
C    3.5483229865 -0.9284785814  0.6867250576
C    3.4894790070 -2.1137867895  1.4722360223
C    4.5876640792 -2.9874119603  1.5552990829
C    5.7532932168 -2.7480178609  0.8354185788
C    5.8240128381 -1.6401110896  0.0088563492
C    4.7393994788 -0.7604545351 -0.0696268218
C   -1.5333873734 -1.4369894821 -0.8541193517
C   -2.5247362653 -2.4457530367 -0.2547317598
C   -2.6726760618 -2.4985411332  1.1446435190
C   -3.5523950400 -3.3993746346  1.7475267974
C   -4.3015569839 -4.2689649638  0.9617404056
C   -4.1710074318 -4.2351554079 -0.4241276312
C   -3.2901409501 -3.3324486757 -1.0282080568
C   -1.2716838701 -1.6112179082 -2.3614994347
C   -4.0562819833  1.1127497496 -0.0651910034
C   -4.0265809893  2.4786390882  0.2611178809
C   -4.8970515193  3.0066132710  1.2187209958
C   -5.8085437459  2.1788561497  1.8688192983
C   -5.8492320437  0.8214847921  1.5645770277
C   -4.9801183741  0.2935752353  0.6076658726
H   -3.8230082599  1.7030890283 -2.7651396067
H   -2.2941633984  0.8890232588 -3.0952104160
H   -2.3271167814  2.3182747480 -2.0643775814
H   -3.6926531315 -0.3516047394 -1.5186561779
H    0.8454658755  3.0319633105 -2.4633102825
H    2.7825849896  4.5287888738 -2.2513312147
H    4.5044869731  1.3114652610  1.9307385592
H    6.3227451021  2.9116862430  2.1743842686
H    6.5060162368  4.8519017417  0.6380066135
H    4.8231907371  5.1849159782 -1.1213038187
H    0.2811164645 -1.9334493574  2.5293149446
H    2.2603100431 -3.3406714738  2.7614839690
H    4.5355525565 -3.8812560324  2.1742225458
H    6.5903391666 -3.4370427159  0.9032965122
H    6.7153136530 -1.4541297115 -0.5845648184
H    4.8371800893  0.0718335851 -0.7645183539
H   -0.5819477046 -1.7232607520 -0.3895696519
H   -2.1091339160 -1.8121772765  1.7736788939
H   -3.6542379134 -3.4145028344  2.8292351279
H   -4.9875612948 -4.9707728301  1.4279373766
H   -4.7558851913 -4.9139236201 -1.0396903657
H   -3.2207101897 -3.3399952270 -2.1121896989
H   -0.8984666910 -2.6205458520 -2.5718557464
H   -2.1723436912 -1.4638309503 -2.9658193835
H   -0.5092665554 -0.9116381178 -2.7183788738
H   -3.3197806384  3.1513162480 -0.2165235674
H   -4.8578664775  4.0655012019  1.4602974075
H   -6.4821685884  2.5900890033  2.6153726999
H   -6.5534913843  0.1688790634  2.0732540627
H   -5.0262514323 -0.7715829516  0.3898851473
