70
SIG-NIHDA-2067 | MMFF94/ETKDGv3 ensemble | attach_idx=3 axis_idx=2 relative_energy_kcal_mol=3.23590392 boltzmann_weight=0.0012317496
C   -5.0369135483 -0.7903312044  0.1240467326
C   -3.6901629472 -1.3624242594 -0.3765221674
N   -2.5201736968 -0.4228111658 -0.4385112735
P   -1.1713089860 -1.1108855966 -1.2895852913
O   -0.3525498778  0.1966419523 -1.7624995377
C    0.9572812434  0.0625788078 -2.1551353545
C    1.9757443769 -0.0842878709 -1.1938887606
C    1.2044866246  0.1792199998 -3.5240282760
C    2.5029923491  0.0861107109 -3.9980808941
C    3.5582228526 -0.1597048458 -3.1174089200
C    3.3118125383 -0.2719308895 -1.7194366631
C    4.4253218545 -0.6296222869 -0.9178374507
C    5.7112070765 -0.7905486661 -1.4417513597
C    5.9291183397 -0.6199000749 -2.7993086902
C    4.8566318048 -0.3143716927 -3.6323044111
O   -0.2580338189 -1.5996997317 -0.0463912409
C    0.5590671897 -0.8016658206  0.7273077505
C    0.3287327693 -0.9329583335  2.1000985994
C    1.0939889992 -0.2276411857  3.0146288460
C    1.6313304584 -0.0292784248  0.2138831210
C    2.3402464004  0.7853808684  1.1785653669
C    2.0771219141  0.6538814265  2.5706180980
C    2.7821586163  1.4207420910  3.5142628859
C    3.7263488077  2.3618066033  3.1151586563
C    3.9642237828  2.5566320462  1.7646744839
C    3.2763372007  1.7895842062  0.8196720836
C   -2.8979040217  0.9954096861 -0.7076306288
C   -1.9183665367  2.0160302206 -0.1086751860
C   -1.2425860523  2.9792690717 -0.8745098783
C   -0.3652886618  3.8870866176 -0.2744482804
C   -0.1582598536  3.8565687361  1.1016505618
C   -0.8296784531  2.9201086163  1.8810060176
C   -1.7014889100  2.0094632606  1.2817468798
C   -3.3268130700  1.2604764956 -2.1654145405
C   -3.4041337935 -2.5944329604  0.4944065553
C   -3.1496294611 -2.4672194913  1.8697249759
C   -2.9086042207 -3.5943575721  2.6567584017
C   -2.9164195120 -4.8621190890  2.0795550987
C   -3.1658073291 -5.0046218843  0.7160451770
C   -3.4101686289 -3.8789603286 -0.0728424181
H   -4.9423639840 -0.3132917333  1.1062016576
H   -5.7875464426 -1.5849041264  0.2202659555
H   -5.4535016979 -0.0606998966 -0.5776100299
H   -3.9010790747 -1.7067489343 -1.4004823774
H    0.3817853069  0.3449846923 -4.2134379152
H    2.6793093397  0.1772849270 -5.0673563493
H    4.2990441390 -0.8068000586  0.1488798075
H    6.5339430473 -1.0555042322 -0.7829705879
H    6.9256139169 -0.7436929108 -3.2138946525
H    5.0418390385 -0.2124340775 -4.6998210897
H   -0.4549757440 -1.5967649842  2.4508245913
H    0.8859997520 -0.3473895424  4.0747325274
H    2.5860239582  1.3009451139  4.5778249978
H    4.2570687946  2.9525344628  3.8562514321
H    4.6778571773  3.3069722798  1.4354463567
H    3.4706041445  2.0067103429 -0.2290850638
H   -3.7921916822  1.2308106314 -0.1191853186
H   -1.3644395589  3.0239413070 -1.9526693028
H    0.1662977961  4.6106835673 -0.8861847971
H    0.5370667410  4.5506633571  1.5647637446
H   -0.6584065521  2.8819947681  2.9528455830
H   -2.2010464368  1.2699080378  1.9035178391
H   -4.1006884076  0.5567454730 -2.4890390044
H   -2.4968041917  1.1874713235 -2.8746511965
H   -3.7506049447  2.2670050473 -2.2622125966
H   -3.1267238480 -1.4816688467  2.3291878742
H   -2.7087744386 -3.4817926764  3.7188007643
H   -2.7235685044 -5.7392418457  2.6912896673
H   -3.1672107908 -5.9935155208  0.2653087776
H   -3.6006106727 -4.0114239873 -1.1351403634
