70
SIG-NIHDA-2067 | MMFF94/ETKDGv3 ensemble | attach_idx=3 axis_idx=2 relative_energy_kcal_mol=0.00000000 boltzmann_weight=0.2900390474
C   -2.8736838461 -3.2113327694  0.1425592509
C   -3.0912099438 -1.6839934841  0.1309443566
N   -1.8358575929 -0.9377620262  0.3473533838
P   -0.6236565264 -0.9570122804 -0.8359169963
O    0.5079731256 -1.8446435765 -0.1108361881
C    1.6466666771 -1.4335756908  0.5499084588
C    2.5200446833 -0.3804995706  0.1599877371
C    1.9340296975 -2.2621542343  1.6429120344
C    3.0357767686 -2.0256273295  2.4472562577
C    3.8519689482 -0.9266286613  2.2025582710
C    3.5935471207 -0.0808310972  1.0878474679
C    4.4100093140  1.0782229416  1.0002091322
C    5.4569881619  1.3416234732  1.8892085685
C    5.7183225377  0.4615417390  2.9252793877
C    4.9134698406 -0.6615732320  3.0851811032
O   -0.0154223378  0.5295166894 -0.6520862994
C    1.0758085930  0.8468779314 -1.4224076004
C    0.8440865329  1.7098861673 -2.4953202402
C    1.8892920868  2.0554276634 -3.3356906324
C    2.3470710673  0.3468233861 -1.0868699859
C    3.3991088096  0.6351767226 -2.0402700176
C    3.1586267470  1.5087989586 -3.1391840056
C    4.1833809326  1.8157866006 -4.0502929192
C    5.4473647875  1.2455444184 -3.9299202698
C    5.6958008334  0.3477367570 -2.9043437493
C    4.6864936728  0.0430602314 -1.9865046594
C   -1.6154952464 -0.3895168643  1.6996450690
C   -2.5587313331  0.7780409232  2.0168595763
C   -3.6677152749  0.6631330666  2.8714458285
C   -4.5006904443  1.7583528845  3.1199644070
C   -4.2415683870  2.9869313142  2.5189332872
C   -3.1494697486  3.1226180971  1.6678938326
C   -2.3172542547  2.0290220957  1.4198471325
C   -1.5911315267 -1.4799749253  2.7859735854
C   -3.8732972859 -1.1847928526 -1.0926081374
C   -4.6230008871  0.0004394080 -0.9882750227
C   -5.3408234591  0.4997122768 -2.0770345670
C   -5.3199647862 -0.1754611172 -3.2934704548
C   -4.5782135393 -1.3466150940 -3.4213665921
C   -3.8588957427 -1.8464126644 -2.3318526655
H   -2.4363468230 -3.5447677325  1.0886123191
H   -2.2109474630 -3.5539571188 -0.6587873440
H   -3.8291944055 -3.7358894990  0.0252617938
H   -3.7739641181 -1.5061868401  0.9725372636
H    1.2835637498 -3.1049770124  1.8652244835
H    3.2233000416 -2.6875790421  3.2893863265
H    4.2267019977  1.8229720499  0.2274668020
H    6.0569036873  2.2396514363  1.7673674452
H    6.5294564706  0.6577356746  3.6207306457
H    5.1123681946 -1.3259551481  3.9240190413
H   -0.1549338687  2.0985974154 -2.6745143002
H    1.6924049585  2.7247424222 -4.1700579032
H    3.9981170887  2.4962835157 -4.8792159014
H    6.2267311181  1.4873925027 -4.6471819768
H    6.6701329032 -0.1252136410 -2.8137290200
H    4.9212561498 -0.6917584866 -1.2182212087
H   -0.6124137638  0.0565923103  1.7614749401
H   -3.9104689793 -0.2791170832  3.3539439424
H   -5.3544794265  1.6493173089  3.7838006362
H   -4.8897864463  3.8369371302  2.7130322491
H   -2.9419436386  4.0780348200  1.1936208976
H   -1.4714420100  2.1572120530  0.7479584985
H   -1.3216688474 -1.0483470090  3.7570336850
H   -2.5543614173 -1.9842589897  2.9095602560
H   -0.8493773118 -2.2490618711  2.5547843562
H   -4.6479096209  0.5505812653 -0.0504320679
H   -5.9110437222  1.4186661994 -1.9717785333
H   -5.8761950883  0.2132370285 -4.1418093511
H   -4.5535856701 -1.8718562434 -4.3725537783
H   -3.2806225143 -2.7548936915 -2.4750513226
