70
SIG-NIHDA-2067 | MMFF94/ETKDGv3 ensemble | attach_idx=3 axis_idx=2 relative_energy_kcal_mol=2.17042538 boltzmann_weight=0.0074391553
C   -2.9768448648 -2.8549631203 -1.9376544843
C   -2.9392070665 -1.3446295690 -1.6170895537
N   -2.0092787060 -0.9643109372 -0.5268597762
P   -0.4351633704 -1.5961793945 -0.5110679826
O    0.1224450831 -1.1335789897  0.9315497322
C    1.4765700295 -1.2004008086  1.1626881352
C    2.3350555346 -0.2157793581  0.6353123717
C    1.9097587321 -2.2298379462  1.9993701358
C    3.2585027907 -2.3536886766  2.2914503102
C    4.1862841635 -1.4771164908  1.7238766919
C    3.7469637752 -0.4199504597  0.8769803693
C    4.7644466085  0.3525195620  0.2624891293
C    6.1229898238  0.1500193321  0.5210701633
C    6.5173550241 -0.8524012729  1.3927497045
C    5.5542800615 -1.6654952254  1.9837573518
O    0.3260951399 -0.5392028126 -1.4707909196
C    0.7950266652  0.7034453524 -1.0961961820
C    0.3296056228  1.7442437800 -1.9042408191
C    0.7440852047  3.0467712331 -1.6815014791
C    1.7584070459  0.9092688738 -0.0752111993
C    2.0993836255  2.2897134050  0.2019526256
C    1.6043239652  3.3371164210 -0.6248189938
C    1.9520270460  4.6766625105 -0.3800195719
C    2.7554737896  5.0252560720  0.7011211947
C    3.2057453799  4.0369236782  1.5603473769
C    2.8730537894  2.7004941896  1.3187623476
C   -2.6801231582 -0.3314586080  0.6302000553
C   -2.9138639308 -1.2762638940  1.8122765224
C   -2.1634230701 -1.2103971245  2.9971595795
C   -2.4074182156 -2.0907430196  4.0548342520
C   -3.4094675093 -3.0508277582  3.9490779374
C   -4.1688629931 -3.1312824183  2.7858492282
C   -3.9239395280 -2.2516987467  1.7286645238
C   -2.0744984670  1.0377963070  0.9937324249
C   -2.7719761117 -0.4597195041 -2.8532970955
C   -3.4320365929  0.7817776486 -2.9021627662
C   -3.3126219528  1.6168603236 -4.0150923884
C   -2.5247776988  1.2289078363 -5.0951805695
C   -1.8513197464  0.0104567780 -5.0589540300
C   -1.9705074209 -0.8260870531 -3.9457575195
H   -3.2018377446 -3.4390361961 -1.0388203860
H   -2.0396604388 -3.2346247429 -2.3561396306
H   -3.7643819337 -3.0678459179 -2.6704443604
H   -3.9733926395 -1.1586812073 -1.2934651612
H    1.1908855573 -2.9296233064  2.4171754931
H    3.5818629097 -3.1629374148  2.9422252510
H    4.5058377405  1.1306662680 -0.4537440195
H    6.8655910793  0.7752432014  0.0323679971
H    7.5715763674 -1.0160560030  1.5981790741
H    5.8846947210 -2.4655710753  2.6433859794
H   -0.3645418977  1.5306996340 -2.7118563426
H    0.3587790295  3.8342900480 -2.3246630792
H    1.5816284612  5.4688773002 -1.0278260133
H    3.0090257786  6.0660980825  0.8812079190
H    3.8106531045  4.2958813091  2.4252808770
H    3.2225504399  1.9685817350  2.0446664137
H   -3.6968866655 -0.0362751467  0.3309476281
H   -1.3670581040 -0.4792139867  3.1121173710
H   -1.8104877945 -2.0246111741  4.9606561077
H   -3.5979094405 -3.7346321811  4.7720198770
H   -4.9532495631 -3.8783801980  2.6993715594
H   -4.5348000033 -2.3317401287  0.8331717090
H   -1.0572904224  0.9815014603  1.3866023986
H   -2.0610642802  1.6962824281  0.1182034183
H   -2.6850862127  1.5323676257  1.7587003714
H   -4.0461100965  1.1072594071 -2.0653606619
H   -3.8328936111  2.5707075432 -4.0358196187
H   -2.4292340985  1.8778456770 -5.9614250730
H   -1.2248010447 -0.2892908357 -5.8951276868
H   -1.4149476951 -1.7600023203 -3.9409642445
