82
SIG-NIHDA-2062 | MMFF94/ETKDGv3 ensemble | attach_idx=3 axis_idx=2 relative_energy_kcal_mol=1.66813571 boltzmann_weight=0.0562156392
C   -0.2092434055 -2.6714454185  3.0336381204
C   -1.2846380143 -1.7631457646  2.3773559468
N   -0.7916002170 -0.6547396151  1.4776255770
P    0.7380973448  0.0425536523  1.9755125911
O    0.8494277249  1.3269124165  1.0059007531
C    2.0708953974  1.8857555316  0.7216891725
C    2.9391000733  1.2705249577 -0.2007066027
C    2.3261192529  3.1290229024  1.3014057352
C    3.5158461680  3.7842194826  1.0272887447
C    4.4717874232  3.1923523506  0.1991618704
C    4.2113750059  1.9295795560 -0.4046991703
C    5.2779309802  1.3608703274 -1.1459381972
C    6.4942588330  2.0207090751 -1.3434526177
C    6.6980608428  3.2729117149 -0.7864023538
C    5.6948549671  3.8508179523 -0.0136054516
O    1.7624219928 -0.9722324475  1.2321057387
C    1.9765770396 -1.0200180566 -0.1303894021
C    1.7442108403 -2.2745149948 -0.7006885670
C    1.9283129527 -2.4718019977 -2.0597147885
C    2.5094309330  0.0613302674 -0.8734073700
C    2.5917512278 -0.1360972712 -2.3040805476
C    2.3188689505 -1.4105444358 -2.8747951634
C    2.4192097290 -1.6148243762 -4.2615949039
C    2.7463213538 -0.5696629523 -5.1204526290
C    2.9625769301  0.6964336771 -4.6015584209
C    2.8767175220  0.9066844401 -3.2223431216
C   -1.8534118128  0.3941763641  1.1855565817
C   -1.6555700834  1.0958614871 -0.1805810294
C   -1.3421349741  0.3015240234 -1.3019332462
C   -1.1082699039  0.8688287288 -2.5480705981
C   -1.2000153243  2.2455463514 -2.7059956517
C   -1.5391433785  3.0728937673 -1.6272628172
C   -1.7837416338  2.5130931362 -0.3445109531
C   -2.1349573042  3.4167117675  0.6896447921
C   -2.2272355662  4.7950496599  0.4742748515
C   -1.9731723841  5.3173696358 -0.7844424802
C   -1.6328763449  4.4603075750 -1.8274873658
C   -3.3427925020 -0.0061568676  1.2184338839
C   -2.2265310374 -2.7633616877  1.6704196128
C   -1.9044584032 -3.1791683788  0.3631531157
C   -2.7031074221 -4.0812026189 -0.3281667826
C   -3.8358845494 -4.6051153729  0.2818042634
C   -3.3719861257 -3.3298603181  2.3177715945
C   -4.1773058850 -4.2491516285  1.5933034943
C   -5.3185521955 -4.8152932244  2.1855824946
C   -5.6826358479 -4.5012392762  3.4921595589
C   -4.9053404347 -3.6178220488  4.2251608965
C   -3.7686715759 -3.0437923589  3.6481879739
H   -0.6737950701 -3.4748364352  3.6189622678
H    0.4229805942 -2.1201383998  3.7368908770
H    0.4320580347 -3.1523913613  2.2866231770
H   -1.8038671269 -1.2684968344  3.2049815766
H    1.5878717110  3.5855963587  1.9544085313
H    3.6986408563  4.7529091512  1.4864335761
H    5.1777637122  0.3664362471 -1.5771995126
H    7.2779273510  1.5464884484 -1.9283031209
H    7.6406321683  3.7920572489 -0.9355999154
H    5.8826049520  4.8230838695  0.4377594455
H    1.4135701620 -3.0986429494 -0.0747064350
H    1.7293759430 -3.4552350707 -2.4787349625
H    2.2257235268 -2.5966272193 -4.6892703060
H    2.8124467949 -0.7417406559 -6.1910435970
H    3.1923141673  1.5285806435 -5.2616179661
H    3.0173108660  1.9261937854 -2.8669492056
H   -1.7588179148  1.1293955159  1.9927478412
H   -1.2482182493 -0.7744339300 -1.1990189154
H   -0.8363392069  0.2381174398 -3.3899245462
H   -1.0017844146  2.6696658738 -3.6875291292
H   -2.3514793153  3.0639643916  1.6928761534
H   -2.4989010741  5.4550250017  1.2936561443
H   -2.0416825859  6.3873909267 -0.9584792653
H   -1.4395146214  4.8866686056 -2.8096203358
H   -3.9812719907  0.8644528013  1.0207595864
H   -3.6441517442 -0.3740479409  2.2023640937
H   -3.5928056466 -0.7491720597  0.4549292233
H   -1.0195212147 -2.7858945791 -0.1276290361
H   -2.4428585107 -4.3737277850 -1.3416041703
H   -4.4502642896 -5.3079565965 -0.2768713123
H   -5.9368377237 -5.5158649822  1.6277927633
H   -6.5676658636 -4.9500053066  3.9346169768
H   -5.1780279220 -3.3717707447  5.2481134683
H   -3.1942935135 -2.3658931478  4.2722220666
