82
SIG-NIHDA-2062 | MMFF94/ETKDGv3 ensemble | attach_idx=3 axis_idx=2 relative_energy_kcal_mol=3.20384417 boltzmann_weight=0.0042089624
C   -0.3121133312 -1.4642778523  1.3798002964
C   -1.3312840068 -0.5638763766  0.6397979705
N   -1.0051286343 -0.1308652843 -0.7555286805
P    0.5717381598  0.3371505747 -1.2140278932
O    1.4038996621 -1.0090497774 -0.8888122894
C    2.7196763420 -0.9961711999 -1.2843482912
C    3.6657887420 -0.1721775732 -0.6383884824
C    3.0328087909 -1.8454991632 -2.3492286762
C    4.3092215609 -1.8363581371 -2.8841265896
C    5.2616475203 -0.9390614812 -2.4022391480
C    4.9486300886 -0.0818652319 -1.3080043750
C    5.9377164015  0.8784564259 -0.9733594880
C    7.1810142031  0.9377851005 -1.6098709651
C    7.4771392898  0.0471473630 -2.6285350069
C    6.5188687321 -0.8798646265 -3.0272006449
O    1.0015618875  1.2495192947  0.0290455255
C    2.1076225953  1.1909398757  0.8452221435
C    1.8930603605  1.9676626081  1.9950338155
C    2.8434994121  2.0414457416  2.9966995504
C    3.3330455624  0.4969715643  0.6204421900
C    4.2409771351  0.4767452495  1.7552716381
C    4.0012373839  1.2799844244  2.9066127693
C    4.9016450627  1.2979239956  3.9861944888
C    6.0328358130  0.4895959421  3.9929316652
C    6.2615008164 -0.3622985063  2.9270670895
C    5.3762994635 -0.3742307792  1.8437767633
C   -2.1563364122  0.5586308396 -1.4409483425
C   -2.7295012879  1.8192577039 -0.7617605474
C   -1.8644357204  2.8882353007 -0.4547527238
C   -2.3226067081  4.0430606868  0.1689764448
C   -3.6679220041  4.1693303077  0.4834383497
C   -4.5776633756  3.1570953729  0.1582988444
C   -4.1313404925  1.9687918776 -0.4832796416
C   -5.1338835443  1.0181227434 -0.8076763048
C   -6.4834770134  1.2137446900 -0.4966655785
C   -6.8848935564  2.3737356364  0.1446638401
C   -5.9365622787  3.3394925799  0.4669258560
C   -1.9565707271  0.8466306565 -2.9468709727
C   -2.6828174817 -1.3037261056  0.7878438458
C   -3.5850268376 -0.7833059652  1.7403248940
C   -4.8144912955 -1.3874901631  1.9728083780
C   -5.1672544328 -2.5292114894  1.2631616360
C   -3.0362588063 -2.4857309961  0.0624127530
C   -4.2984484985 -3.0860756893  0.3146163115
C   -4.6865400729 -4.2421932241 -0.3833382429
C   -3.8504692255 -4.8251153547 -1.3324392324
C   -2.6131717675 -4.2574015448 -1.5953743703
C   -2.2144805857 -3.1076703691 -0.9087401948
H    0.6220065769 -0.9441706665  1.5941418950
H   -0.0732875994 -2.3764288124  0.8246010655
H   -0.7045768088 -1.7789567143  2.3553808892
H   -1.3870935076  0.3551235644  1.2401413433
H    2.2696379766 -2.4958936722 -2.7681901372
H    4.5352335961 -2.4987326506 -3.7165790342
H    5.7428273800  1.6206621106 -0.2007716915
H    7.9089871412  1.6855812478 -1.3063425134
H    8.4414679288  0.0859604863 -3.1274666129
H    6.7574878185 -1.5503995400 -3.8506448687
H    0.9595411765  2.5163956192  2.1067288304
H    2.6401880471  2.6560968966  3.8703320958
H    4.7145654442  1.9326489181  4.8504384229
H    6.7139443858  0.5064893405  4.8389396308
H    7.1207997455 -1.0277332286  2.9304900496
H    5.5860971958 -1.0956559011  1.0558218320
H   -2.9357374803 -0.2011248319 -1.4653437828
H   -0.8116363902  2.8430118079 -0.7097491876
H   -1.6294059603  4.8466873253  0.4023403860
H   -4.0058497008  5.0811550994  0.9710380261
H   -4.8895898319  0.0853103173 -1.3075786622
H   -7.2125116454  0.4508763042 -0.7568414136
H   -7.9313733006  2.5312142988  0.3892923760
H   -6.2707730363  4.2492386895  0.9616829694
H   -1.6088777266 -0.0484132991 -3.4751537410
H   -1.2472798420  1.6607174528 -3.1314783319
H   -2.9067810348  1.1427899389 -3.4078902585
H   -3.3338367698  0.1149350327  2.3020164778
H   -5.4993607932 -0.9629078041  2.7016577578
H   -6.1351393727 -2.9853005010  1.4592145345
H   -5.6528977946 -4.7028187416 -0.1889275177
H   -4.1658994192 -5.7197651418 -1.8618119031
H   -1.9517377236 -4.7032453481 -2.3332163417
H   -1.2378955633 -2.6972872618 -1.1521229610
