44
SIG-NIHDA-785 | MMFF94/ETKDGv3 ensemble | attach_idx=2 axis_idx=3 relative_energy_kcal_mol=0.00000012 boltzmann_weight=0.4999999481
C    5.0372322471 -1.5134670279 -0.2755869410
N    4.1662370691 -0.3810866184  0.0387999573
P    2.9677361918 -0.0504742941 -1.1270204676
O    2.1606043926  1.1431429416 -0.3902700889
C    0.9601888090  1.5331193461 -0.9362070253
C    0.9563684387  2.7595921018 -1.6031593463
C   -0.2133459687  3.2221752323 -2.1838242451
C   -1.3749862280  2.4489656785 -2.1389690901
C   -2.5285171293  2.9092332851 -2.7963019976
C   -3.6910992464  2.1445309491 -2.8291168553
C   -3.7075809493  0.9015618315 -2.2172119684
C   -2.5687765354  0.4382727858 -1.5521127592
C   -1.3780000823  1.2016730917 -1.4518918452
C   -0.1943194745  0.7472351075 -0.7524912267
O    1.9559811427 -1.2907557550 -0.9129483473
C    0.9064048071 -1.3777034520 -0.0227714330
C   -0.1295563158 -0.4170498181  0.1119782313
C   -1.0993325102 -0.6809668641  1.1560208504
C   -2.0660667276  0.2644069432  1.5886693567
C   -3.0082165624 -0.0140417208  2.5836901049
C   -3.0071180386 -1.2505950137  3.2067754550
C   -2.0468538821 -2.1929279099  2.8525088874
C   -1.0893947698 -1.9173950319  1.8610534779
C   -0.1095043724 -2.8687475985  1.5894657478
C    0.8896697528 -2.5938024195  0.6708903900
C    3.8126709190 -0.3983593737  1.4564808811
H    4.5131438701 -2.4733454547 -0.1911417509
H    5.4512695899 -1.4352530938 -1.2886084910
H    5.9006641016 -1.5390377746  0.3999607840
H    1.8687211297  3.3461022949 -1.6685756749
H   -0.1991217111  4.1781281626 -2.7024543900
H   -2.5253692823  3.8704402901 -3.3067749394
H   -4.5722476220  2.5114436660 -3.3480902773
H   -4.6000159737  0.2825499080 -2.2573310195
H   -2.6212945265 -0.5574353729 -1.1150273291
H   -2.0893749021  1.2638136122  1.1574677005
H   -3.7335572198  0.7434441249  2.8688792529
H   -3.7355892907 -1.4755288038  3.9806808601
H   -2.0415764832 -3.1482470864  3.3739632208
H   -0.0918898998 -3.8204388130  2.1154332727
H    1.6710642154 -3.3279719432  0.4896767484
H    3.2393317453 -1.2876965093  1.7359959185
H    4.7202963030 -0.3868963211  2.0723543998
H    3.2451209793  0.4893927177  1.7571420115
