51
SIG-NIHDA-2063 | MMFF94/ETKDGv3 ensemble | attach_idx=1 axis_idx=2 relative_energy_kcal_mol=0.00000000 boltzmann_weight=0.9977288176
N    3.2638358705  0.6289039087 -0.2637422948
P    1.8923642738  1.5621439278 -0.6682580690
O    1.0633093294  1.4918456507  0.7194482197
C   -0.2349280004  1.9451596181  0.7120775123
C   -1.2609740755  1.1584774870  0.1527445030
C   -0.4630823496  3.1693851018  1.3431403400
C   -1.7439329200  3.6962574500  1.3777930756
C   -2.7970871223  3.0279921245  0.7504571187
C   -2.5707293188  1.7746530974  0.1134852919
C   -3.6732610359  1.2246420881 -0.5884408927
C   -4.9351821914  1.8257245787 -0.6003441918
C   -5.1376492995  3.0179428369  0.0758889937
C   -4.0721181675  3.6185488024  0.7402303589
O    1.0571860387  0.5286385263 -1.5859172710
C    0.1534003826 -0.4256479873 -1.1690510586
C    0.3637921079 -1.6684064796 -1.7786273880
C   -0.4653231461 -2.7414113272 -1.4978428583
C   -0.9532588684 -0.1806688123 -0.3152228414
C   -1.7379098687 -1.3442138943  0.0458030034
C   -1.4972801149 -2.6031833986 -0.5731271633
C   -2.2754721657 -3.7284351008 -0.2509453281
C   -3.2760644678 -3.6588423001  0.7132177435
C   -3.4970131927 -2.4647431436  1.3785437999
C   -2.7346882474 -1.3376070086  1.0566177744
C    4.2084706543  0.4171005546 -1.3715166940
C    5.5743026687 -0.0602797393 -0.8723423607
C    5.4493363899 -1.3126772618 -0.0169121756
C    4.4326493543 -1.0881735961  1.0933507840
C    3.0956700404 -0.5945580876  0.5330011189
H    0.3621692306  3.7070095997  1.8020325952
H   -1.9046424216  4.6524361535  1.8706615677
H   -3.5569877233  0.3059157170 -1.1608504622
H   -5.7516161702  1.3589767116 -1.1451399369
H   -6.1155634628  3.4912743283  0.0711516064
H   -4.2431653837  4.5691342288  1.2418687636
H    1.1892196312 -1.7936462695 -2.4753389368
H   -0.2725719228 -3.6951518652 -1.9835169175
H   -2.0951044961 -4.6827172407 -0.7422593468
H   -3.8638322347 -4.5394022995  0.9568224354
H   -4.2555170404 -2.4010843440  2.1543431121
H   -2.9255130908 -0.4351647677  1.6349548814
H    4.3777249483  1.3507498509 -1.9249618159
H    3.8055511738 -0.3113842271 -2.0886795626
H    6.0484700980  0.7371546151 -0.2860044822
H    6.2303790188 -0.2607539586 -1.7269945659
H    5.1315819806 -2.1557741534 -0.6424354460
H    6.4228573832 -1.5761382345  0.4106477009
H    4.2785891066 -2.0220231747  1.6459562041
H    4.8248504826 -0.3541849105  1.8087852544
H    2.4354294786 -0.4280109328  1.3924781222
H    2.6493288559 -1.3957824425 -0.0670298214
