43
-65.59262308
C   -4.372184384700 -3.390297344200  0.350932978800
C   -3.639351781000 -2.099005666800  0.164545177000
C   -2.700715174000 -1.953149914700 -0.853969040400
C   -2.042172413400 -0.751106682400 -1.041319046700
C   -2.322483875700  0.310441262800 -0.202498532100
S   -1.442364612000  1.839909862600 -0.454994600900
O   -1.650903842800  2.313669151500 -1.801216205800
O   -1.766395555800  2.763592868400  0.612852940700
N    0.139441307200  1.297190431600 -0.357616470700
C    0.578419724200  1.011583601500  1.006565418000
C    1.966678425800  1.648238569400  1.085595531500
C    1.751054962700  2.899939665200  0.234610957400
C    1.156857685200  2.159014086300 -0.959827982100
C    2.276156257600  1.265936448300 -1.495048566000
P    3.237317015500  0.726312324600  0.031953690800
C    2.715765308800 -1.016574145600  0.246519686200
C    2.609029363200 -1.889984839400 -0.830523387800
C    2.294155217600 -3.221739787200 -0.622957702900
C    2.106283535400 -3.702936460000  0.661686084500
C    2.256463085700 -2.850168305100  1.743873217100
C    2.570576767500 -1.519662626100  1.539145298500
C   -3.246891530200  0.191122257300  0.816643744500
C   -3.903904738700 -1.013755775300  0.995940855400
H   -5.346190268300 -3.331273169900 -0.135177525700
H   -3.822922876400 -4.217632119600 -0.089605084700
H   -4.538592570100 -3.591530609300  1.406267548400
H   -2.485287118700 -2.787177160000 -1.504969547800
H   -1.315927235100 -0.617223498100 -1.826590576600
H   -0.106549400500  1.490846020200  1.717086942800
H    0.569628726300 -0.066419046200  1.179746337500
H    2.303614719500  1.827752045600  2.105975982100
H    2.670855627600  3.429231909600 -0.012048873500
H    1.032335031000  3.586478397300  0.684771601600
H    0.686735726500  2.772219000000 -1.729577521000
H    1.871130247900  0.423276378000 -2.052984298300
H    2.936806900400  1.836223922100 -2.152029845900
H    2.778693974000 -1.534063410400 -1.836711100600
H    2.201783123600 -3.888019867600 -1.468745041000
H    1.857999042100 -4.741929667900  0.821097594900
H    2.132386930300 -3.224374672300  2.749964343000
H    2.700149128500 -0.857916083000  2.385104860000
H   -3.435021476000  1.043557875800  1.450966027700
H   -4.629788480600 -1.113119573500  1.789263361500
