43
-65.59133990
C   -6.633668089200  0.623495131200 -0.063186621000
C   -5.177083479600  0.283731809400 -0.114161393700
C   -4.527385453200 -0.180903386600  1.028737653700
C   -3.184629237300 -0.507440435200  0.994583577500
C   -2.485800972500 -0.372960826100 -0.190681779800
S   -0.739411977100 -0.736536173000 -0.201755139300
O   -0.472523222100 -1.913836002200  0.585601882900
O   -0.284108209900 -0.750116935000 -1.575572100500
N   -0.169702745600  0.561470881000  0.665744410500
C    0.859517569100  0.369211734100  1.683055186300
C    1.707444101400  1.634718843000  1.569217729300
C    0.633796923200  2.659064264200  1.193646068600
C    0.059978182300  1.851214384400  0.031575528100
C    1.187967332600  1.782043571000 -1.002198015900
P    2.771564122300  1.654954728200  0.004332863500
C    3.221044276900 -0.113385064500 -0.167268973600
C    3.813832377600 -0.761703203100  0.916048852300
C    4.238434556000 -2.071980554200  0.803704311500
C    4.096902140200 -2.746162266500 -0.398750665800
C    3.549177724600 -2.095182803200 -1.491017077800
C    3.125821954700 -0.782301731800 -1.382239924500
C   -3.106713867100  0.083385985300 -1.335812839200
C   -4.452328713300  0.409702654700 -1.294541336100
H   -6.850385175700  1.246699043700  0.801867268400
H   -6.945497314000  1.144727533600 -0.963804569200
H   -7.223034441200 -0.288361132100  0.029373434800
H   -5.081815194300 -0.284978264800  1.949618817500
H   -2.664670507200 -0.874807362800  1.865069345400
H    0.377243942200  0.307656062900  2.667854515400
H    1.398835641300 -0.563315805600  1.512142056400
H    2.273890099400  1.860153734700  2.472235177200
H    1.037892068600  3.618045605100  0.871843038100
H   -0.092881004100  2.806180088300  1.991574052700
H   -0.878985553900  2.215530250000 -0.392007393600
H    1.048473321800  0.935329228500 -1.671761604300
H    1.214639591600  2.699857209900 -1.595577782700
H    3.932379512700 -0.233294354900  1.852862764900
H    4.680724500200 -2.569634284700  1.654989596300
H    4.421675238100 -3.772782538500 -0.486361336900
H    3.451192407500 -2.610814230200 -2.435761898000
H    2.714202815100 -0.285838939200 -2.249222062100
H   -2.527498950200  0.169529993600 -2.242137132400
H   -4.941671088700  0.765648749200 -2.189001481300
