43
-65.59189089
C   -6.078558343800  0.436878245100  1.842133433200
C   -4.853262883000  0.277544773000  0.998521646100
C   -4.340241187600  1.358922283200  0.285852725900
C   -3.215238272500  1.214299359100 -0.506321647400
C   -2.600284664600 -0.020764013700 -0.591284111700
S   -1.105516854900 -0.196672332300 -1.560792888300
O   -0.924322503100 -1.589819193600 -1.880394878900
O   -1.138130372200  0.746256494000 -2.651450745600
N    0.163615163800  0.240734388600 -0.585546013100
C    0.368329683000 -0.544539649100  0.627049683500
C    0.829714398100  0.499280944200  1.640504077400
C   -0.062829135300  1.680111098500  1.256751300300
C    0.297127296700  1.649786721100 -0.227107829600
C    1.779307156000  2.025389260900 -0.278717801500
P    2.544952347200  1.192705091900  1.223062241700
C    3.398675740100 -0.282515878200  0.532495771400
C    3.231547428400 -0.799869305600 -0.748565427500
C    3.960921349000 -1.905652780200 -1.150255743600
C    4.863908357300 -2.504698294500 -0.286770437900
C    5.038467617400 -1.994558137000  0.989310377500
C    4.314091117600 -0.887736296000  1.392195585600
C   -3.100533426400 -1.112597286700  0.092634526700
C   -4.224188826800 -0.959255282500  0.886956985700
H   -6.966513468900  0.270522984900  1.231774671200
H   -6.088481181500 -0.285356010600  2.654158701300
H   -6.138391615500  1.441087158700  2.253829333800
H   -4.825538061600  2.321176585700  0.352780850200
H   -2.815025577600  2.039854628100 -1.073580378500
H   -0.574077231200 -1.006303766600  0.947496534100
H    1.090932464300 -1.341155581600  0.441029092300
H    0.755263531700  0.159271889200  2.672799155900
H    0.222729600500  2.615966773800  1.734987980500
H   -1.118416246000  1.476327833700  1.439833725700
H   -0.313274676400  2.248808142000 -0.902542606400
H    2.251429965200  1.731034365500 -1.214527401400
H    1.894760053800  3.106923354700 -0.168298211500
H    2.518472839400 -0.362938133300 -1.432427385800
H    3.817829963600 -2.303056152900 -2.145265488200
H    5.430131538100 -3.366391027900 -0.609417611400
H    5.742352328700 -2.456389552300  1.666507801800
H    4.452066988800 -0.478775314100  2.384377840800
H   -2.613324145000 -2.068583820900 -0.023761306700
H   -4.617252061500 -1.809672952300  1.423993387600
