43
-65.59272045
C   -3.982164509300 -3.576140490800  0.105735479900
C   -3.381421885600 -2.209630970900  0.000140393900
C   -2.534432505200 -1.901777702900 -1.064085985800
C   -1.967010831800 -0.646859094300 -1.174015449000
C   -2.245148096900  0.307368055400 -0.212826000800
S   -1.438575503900  1.890802850000 -0.348575908900
O   -1.630098683300  2.439145671400 -1.668795930800
O   -1.826473146200  2.728423546200  0.767673844800
N    0.155103525300  1.400503468800 -0.238028455100
C    0.594519661600  1.083805424700  1.117353310600
C    2.016328203700  1.640735227900  1.169692422300
C    1.839247803700  2.927401100700  0.362749116400
C    1.180701006000  2.253587385200 -0.837800481400
C    2.252819039800  1.342878829700 -1.435621347400
P    3.202372570500  0.680356991100  0.049884239500
C    2.564246429000 -1.030216851000  0.206670295900
C    2.415676692500 -1.575982725700  1.481572147600
C    2.003390884400 -2.885662461500  1.641834610700
C    1.756187812200 -3.676895426900  0.531179270900
C    1.948787017000 -3.157726119400 -0.737761355100
C    2.363123560100 -1.847169435300 -0.900561426000
C   -3.079642755600  0.028298889200  0.849858535300
C   -3.648602707400 -1.230995238800  0.951277077800
H   -3.197523835200 -4.319057448200  0.241813250400
H   -4.670226961700 -3.637978051900  0.943876218300
H   -4.517646906400 -3.824585259000 -0.808813956000
H   -2.321218904200 -2.654625581300 -1.808146874900
H   -1.315179336600 -0.385369036600 -1.991825603700
H   -0.050549743500  1.598790304700  1.841204650200
H    0.525350433100  0.007635286500  1.287660939600
H    2.394808740300  1.770952648700  2.183027180400
H    2.776426408900  3.419967099600  0.106015975000
H    1.168695641900  3.633289181900  0.855101505200
H    0.710790645400  2.910236252200 -1.571020873800
H    1.805347256200  0.550107053800 -2.032427484400
H    2.932609140400  1.917544654400 -2.068887909400
H    2.620392721400 -0.963466882700  2.349570477200
H    1.877676674200 -3.291713433600  2.635355378300
H    1.430140928700 -4.699029296100  0.655923633700
H    1.782278544000 -3.778057538500 -1.606783062500
H    2.534549633200 -1.464542233400 -1.896494269800
H   -3.271682132100  0.800761906400  1.578451362400
H   -4.304951104300 -1.452659755600  1.779631286200
