43
-65.59021675
C   -6.708329034800 -0.305427551200  0.393682602000
C   -5.227488575100 -0.286376796300  0.177372538100
C   -4.383454187400  0.397955615900  1.045043986200
C   -3.012672259600  0.407866917900  0.843110617000
C   -2.481868135800 -0.269702225600 -0.235394642200
S   -0.720359922900 -0.295532023600 -0.555098634400
O   -0.194773353400 -1.561275514800 -0.098863625600
O   -0.532456052300  0.024848595100 -1.951767852800
N   -0.143411847000  0.925347252300  0.416327655700
C    0.695674091600  0.584923692000  1.561416163000
C    1.736029530100  1.703001833400  1.583639630300
C    0.893252363200  2.879675945000  1.084270941300
C    0.363532774000  2.166375192500 -0.157214776200
C    1.596411195700  1.918503585700 -1.030364297200
P    2.991827575300  1.553641513100  0.175829619700
C    3.188959908100 -0.261171005000  0.022830894200
C    3.513070850100 -1.004594356400  1.156934681200
C    3.755644093000 -2.361608667200  1.060435862300
C    3.702046256900 -2.990139885300 -0.173101598400
C    3.423453808100 -2.250640862200 -1.309731646700
C    3.179768890900 -0.892143645100 -1.216051233700
C   -3.301322092000 -0.961287747400 -1.108863057800
C   -4.668349343800 -0.968374633400 -0.901229090900
H   -7.232606291000 -0.114229049000 -0.540174571900
H   -7.017453665500 -1.286839759500  0.752475589400
H   -7.006020243800  0.438527070200  1.127135588900
H   -4.800806617700  0.931299877700  1.886198144800
H   -2.356549711700  0.943223780000  1.509536855900
H    0.083955184600  0.603144347200  2.473793778500
H    1.101861487100 -0.420591421400  1.442252235200
H    2.203666358900  1.842386862100  2.557801935300
H    1.480025773400  3.762239224300  0.832948588300
H    0.099842981200  3.145337018600  1.781586788200
H   -0.440692608200  2.664936031400 -0.701823625000
H    1.415214499800  1.104420472600 -1.729879057700
H    1.841892913300  2.818540984900 -1.600598109000
H    3.566119192300 -0.512779088900  2.119306833500
H    3.988320004600 -2.931398864400  1.948875490500
H    3.885831851300 -4.051997741300 -0.249428765600
H    3.395967600200 -2.732725207100 -2.276790808600
H    2.979918853900 -0.326213426700 -2.115352652500
H   -2.851549642600 -1.476279862300 -1.943755691500
H   -5.310922281200 -1.504994950700 -1.583425997500
