43
-65.59251343
C   -4.602387559300 -3.298461080700  0.106372274800
C   -3.824059700300 -2.023069250800  0.025030650400
C   -2.968365744000 -1.792028486600 -1.051168958400
C   -2.260027030200 -0.609158532400 -1.149542312900
C   -2.406459369700  0.349321869400 -0.163971542800
S   -1.469575924200  1.858533549900 -0.310246102100
O   -1.699191543500  2.452840987000 -1.604054416300
O   -1.726598201400  2.697135106600  0.842601103600
N    0.097110987400  1.254599503300 -0.310720901000
C    0.572153833800  0.863945183200  1.015777686900
C    1.935986363200  1.548128129400  1.144799756800
C    1.686489227300  2.839662747000  0.365739139900
C    1.109418807600  2.151052527400 -0.867929031200
C    2.238910465600  1.295912022000 -1.444676035000
P    3.245825188500  0.744773516800  0.048410956300
C    2.836397215400 -1.034568293200  0.186759133400
C    2.713788077600 -1.604453203200  1.453515695800
C    2.504848969600 -2.963764963900  1.594181839500
C    2.439042252200 -3.776365381900  0.473347707800
C    2.600816111400 -3.224251616500 -0.786311360600
C    2.809913476800 -1.863670397700 -0.930000397600
C   -3.245762322400  0.144578516100  0.912595612600
C   -3.953691849100 -1.042473987900  1.003165144600
H   -5.436815740900 -3.264660652700 -0.594048513600
H   -3.977819808500 -4.147220122600 -0.162334019300
H   -5.001086652800 -3.450297800200  1.105405573200
H   -2.860852749000 -2.546379751200 -1.816250287100
H   -1.598673167000 -0.407936565100 -1.976785484500
H   -0.122563273200  1.242961960800  1.774381129800
H    0.614096743800 -0.225197724500  1.086105313000
H    2.258191369500  1.679403836500  2.177139761200
H    2.592669649400  3.405523969800  0.151118042900
H    0.948815653400  3.480729565900  0.851028815100
H    0.634911134000  2.796844666700 -1.607493082000
H    1.840428648500  0.454960044100 -2.010720604100
H    2.871034939100  1.895070524000 -2.103858004700
H    2.778505847200 -0.973298212100  2.329622535400
H    2.398524246400 -3.391859067500  2.580674907700
H    2.275793912600 -4.838428065500  0.583229569100
H    2.571763816600 -3.857205718700 -1.661724542300
H    2.960803774700 -1.447938015800 -1.916250156800
H   -3.333513450700  0.918553762000  1.659435564700
H   -4.613462945100 -1.205898125800  1.842231993200
