43
-65.59081673
C   -5.234901881000 -1.884408517400 -2.023150846200
C   -4.277216494700 -1.125385131900 -1.159857804600
C   -3.267750807100 -1.795097023700 -0.470333429900
C   -2.366514525300 -1.098645195900  0.313399656800
C   -2.473798307000  0.276397499400  0.407551255100
S   -1.268046632900  1.142296561700  1.394740165300
O   -1.583232526200  2.554849430400  1.422490468100
O   -1.115504034000  0.489171114800  2.670314965200
N    0.123655350900  0.829031586800  0.507241150800
C    1.377423900700  0.947977970000  1.257738987400
C    2.271708605900  1.767807449500  0.333048153400
C    1.253724485500  2.748867743900 -0.245966183100
C    0.255946378100  1.677835708900 -0.678138443100
C    0.966859681600  0.887470778400 -1.775170484700
P    2.762261908000  0.797775585500 -1.220390688100
C    2.947159336400 -0.907707771900 -0.557698446900
C    4.261968833100 -1.308776246700 -0.326925039900
C    4.541488264200 -2.575079561200  0.153471676000
C    3.506938163500 -3.463527365000  0.397027905300
C    2.197343102400 -3.075914716600  0.163756602400
C    1.914512387900 -1.807068127500 -0.311428591200
C   -3.465501259500  0.963323703700 -0.264093482000
C   -4.365628038800  0.258832884700 -1.045954941900
H   -6.158412788600 -1.329141957500 -2.162253843300
H   -4.789535622700 -2.053846333900 -3.003683181800
H   -5.462477415100 -2.854155860300 -1.587729053000
H   -3.192182852800 -2.869425775300 -0.548493618000
H   -1.584742147300 -1.595358439100  0.865728052300
H    1.195304229500  1.473403810700  2.203009122000
H    1.764243254800 -0.045689971200  1.492643403600
H    3.127822820800  2.210119649900  0.841402229000
H    1.631994123200  3.335603962800 -1.082198020100
H    0.831688557700  3.407840123800  0.514039581100
H   -0.730265621700  2.040618238600 -0.971391314000
H    0.523332127100 -0.092026232400 -1.944549217800
H    0.929047793600  1.443106950900 -2.715725894800
H    5.066294211000 -0.613703409800 -0.528885952800
H    5.564997753900 -2.871794985300  0.331781327800
H    3.720033067600 -4.456143144300  0.766326738200
H    1.389016622100 -3.767300095100  0.355694219100
H    0.886616751600 -1.515771325100 -0.467759829400
H   -3.520517093900  2.036005837900 -0.157974357900
H   -5.144557915300  0.790700688200 -1.571590523300
