43
-65.59253662
C   -4.490728016100 -3.346963595200  0.214725938600
C   -3.743562087100 -2.059556614500  0.060695215900
C   -2.815154559300 -1.884652344400 -0.961554556800
C   -2.127075293300 -0.691237435000 -1.095071753700
C   -2.368088412400  0.331094145700 -0.198079372200
S   -1.456620041300  1.851580833400 -0.385384721100
O   -1.663825914800  2.391418909500 -1.706580640100
O   -1.755229531300  2.731080531200  0.726352175600
N    0.117442371600  1.275086126600 -0.324935993000
C    0.550155926700  0.906224593500  1.021804475600
C    1.919540721200  1.573248719600  1.168747075700
C    1.694477638500  2.863407849200  0.379870255900
C    1.138266007900  2.174178526400 -0.862928089700
C    2.279266747800  1.320420812100 -1.417454533700
P    3.237999079100  0.745961769600  0.098497360400
C    2.784873483000 -1.024294592500  0.219746838300
C    2.617854942200 -1.596294581700  1.480466044100
C    2.366119474200 -2.949545449900  1.609374674200
C    2.301943532200 -3.754883698000  0.483276687100
C    2.510353683900 -3.202371576600 -0.769270443200
C    2.761891090900 -1.847809846000 -0.901141824700
C   -3.282678219200  0.182280908000  0.826808245100
C   -3.968488440800 -1.012566922200  0.952037196900
H   -4.271635198100 -4.027034777900 -0.603242808800
H   -4.215651482400 -3.828322024800  1.152262286500
H   -5.562801987200 -3.160758017300  0.241607838700
H   -2.630411417500 -2.687447054200 -1.659561910800
H   -1.409046922900 -0.534291392600 -1.883677401500
H   -0.157105384000  1.313554860100  1.754350948200
H    0.571571938700 -0.181393661000  1.117296787400
H    2.227296349000  1.706182248800  2.205322907200
H    2.608149091200  3.422644216400  0.180602433200
H    0.952140065900  3.511105497100  0.848921793400
H    0.677024753300  2.819036037600 -1.611842249600
H    1.894053969500  0.489126083600 -2.006166426000
H    2.933969747800  1.924537868900 -2.049592570200
H    2.681615395600 -0.971466161300  2.361263464900
H    2.224619735300 -3.378658149300  2.591049559500
H    2.104206597600 -4.811979929000  0.583841298900
H    2.484074287200 -3.830352465900 -1.648364286500
H    2.948622842600 -1.433020387200 -1.881609283200
H   -3.442018753800  1.005788149100  1.505762915900
H   -4.687281118400 -1.135844046000  1.748487053300
