43
-65.59314682
C   -6.242567825600 -1.049977396500  1.071922414300
C   -4.877708697000 -0.729013761800  0.548224153400
C   -3.824502682300 -1.619928296300  0.743349874900
C   -2.562456972000 -1.341758813100  0.249029233600
C   -2.353006904500 -0.165806856600 -0.445614559000
S   -0.720769944900  0.240454883000 -1.037672452600
O    0.073743376000 -0.966675950200 -1.088565998000
O   -0.823309217600  1.014385524400 -2.250424789800
N   -0.214423465700  1.270953197400  0.175341894900
C    0.374431215600  0.653912726800  1.360307389700
C    1.560844773400  1.561085057200  1.694384633900
C    1.041079846800  2.913115558600  1.198763123400
C    0.619828593800  2.412676827600 -0.179175410700
C    1.908358230700  1.954514694700 -0.871078580800
P    3.014545957700  1.315046607300  0.512291378700
C    3.003696605500 -0.495032503600  0.238347770600
C    2.968358428100 -1.352292971600  1.336700818000
C    3.041755028400 -2.721071913700  1.158887652500
C    3.174668697200 -3.249074134500 -0.115055100700
C    3.255438963900 -2.401041687200 -1.206580895100
C    3.183478922700 -1.031244574300 -1.031699250600
C   -3.380908778400  0.733538493400 -0.652059871800
C   -4.641278874100  0.447850379000 -0.156662045900
H   -6.720655334000 -1.785847684200  0.425376311300
H   -6.180790426600 -1.475849202500  2.070747936000
H   -6.868795548000 -0.162694350100  1.099939890200
H   -3.996270474300 -2.537697308500  1.286148680700
H   -1.736096267600 -2.023153659500  0.380841705300
H   -0.368040215500  0.659116329400  2.168344814300
H    0.654086536700 -0.379756661000  1.144277917100
H    1.852666111300  1.527928062600  2.743706260300
H    1.810769697400  3.682125826100  1.142328774300
H    0.193052731300  3.270986710600  1.781096655500
H    0.037306586200  3.099685352400 -0.794932735000
H    1.688449884700  1.190301224400 -1.617290255600
H    2.398383876500  2.796050590500 -1.368197385300
H    2.872813231200 -0.940027383500  2.332574824100
H    2.994770644200 -3.378339970900  2.015745751000
H    3.222725114700 -4.319193938100 -0.256204588800
H    3.372390844900 -2.808228041000 -2.200902072400
H    3.259642126200 -0.378796126900 -1.890766329300
H   -3.177783823300  1.635604050900 -1.207255897600
H   -5.449330868200  1.145882064800 -0.318365841000
