43
-65.59161652
C   -5.240205771500 -2.329192393700 -1.317192727300
C   -4.249500597300 -1.389944479800 -0.704442369300
C   -3.115198858600 -1.874731760100 -0.057490332900
C   -2.210546366300 -1.007098825900  0.527615296300
C   -2.441846228900  0.353840786900  0.464001755800
S   -1.236764014200  1.439477563500  1.204894731800
O   -1.599983905000  2.816450569100  0.942710771800
O   -1.030390417900  1.075649287400  2.584749339000
N    0.132121132400  0.978402825000  0.356082460600
C    1.413862598000  1.124993476800  1.046552185000
C    2.315945470500  1.782002947400  0.002255007800
C    1.320111823700  2.705559278800 -0.698591738500
C    0.273583360000  1.623422324400 -0.947155056400
C    0.921413891700  0.623237490400 -1.903423934900
P    2.740844523700  0.602354753000 -1.413980694000
C    2.911086264100 -1.001026841400 -0.544902957400
C    2.317788064500 -2.164287352200 -1.023732809100
C    2.543790356600 -3.375630313400 -0.393271402200
C    3.382516656500 -3.445063936600  0.706313282900
C    4.012075205400 -2.298195314300  1.164039054500
C    3.787616929500 -1.087104032100  0.536422507200
C   -3.558378312000  0.860344440000 -0.171593318600
C   -4.459734870500 -0.014319997900 -0.753649775400
H   -5.657612663500 -1.910330153300 -2.229452898400
H   -4.781911530000 -3.288734134000 -1.540087289700
H   -6.061918088600 -2.498817990400 -0.621142221200
H   -2.940283073100 -2.939314692500 -0.012181523800
H   -1.326914247200 -1.361478020900  1.034146647000
H    1.289912336200  1.764652276800  1.928209898400
H    1.759655292300  0.145800550800  1.384416341900
H    3.189667244600  2.271689217200  0.430738896600
H    1.700808650400  3.145073185200 -1.620055420400
H    0.938791358500  3.487315045100 -0.040281897500
H   -0.703144325600  1.976720859500 -1.280173705400
H    0.454787835900 -0.356833806700 -1.817530125500
H    0.832024405600  0.967864308900 -2.935954811900
H    1.681123545700 -2.129911679600 -1.896157341300
H    2.066945389100 -4.270775582500 -0.766316214500
H    3.555403467400 -4.390901515700  1.198601668900
H    4.681922703500 -2.349146521800  2.010552435200
H    4.288355432900 -0.195004092200  0.888324317700
H   -3.701696829000  1.929663718100 -0.199471095300
H   -5.335268885000  0.374608764200 -1.251926534500
