43
-65.59167448
C   -5.611524650200 -1.481624223500 -2.010461071800
C   -4.556243366500 -0.864643391800 -1.147491246100
C   -4.589511557800  0.498771979100 -0.865312618700
C   -3.609722408000  1.082490656100 -0.081608334800
C   -2.591083080200  0.296593460600  0.422135346700
S   -1.310746068900  1.013493933800  1.435295297300
O   -1.524299125400  2.441558060500  1.546024983100
O   -1.200444674400  0.286153828800  2.674853498200
N    0.054643002800  0.647087189100  0.525799997700
C    1.319065569200  0.744657595200  1.259870133900
C    2.181686045400  1.678721257800  0.407668532700
C    1.122686624400  2.612677599100 -0.176814263400
C    0.198634437800  1.496183729800 -0.654048975600
C    0.981293891400  0.714226177100 -1.710531892200
P    2.783217481200  0.838851376900 -1.172114512300
C    3.163953661600 -0.856457825700 -0.594831946100
C    4.014209884200 -1.019371283500  0.498293511600
C    4.403873068000 -2.282759383800  0.901809310800
C    3.968808333700 -3.399479450400  0.205504768900
C    3.156284543900 -3.243723688300 -0.904960523800
C    2.764741515400 -1.979913355300 -1.311290621200
C   -2.535325674600 -1.058311865100  0.157572196800
C   -3.518288432600 -1.634113471800 -0.627926377600
H   -6.588448811700 -1.061862061700 -1.782931311500
H   -5.396209178000 -1.274792468000 -3.058794894200
H   -5.645705308700 -2.559016190300 -1.875487581600
H   -5.389674950900  1.106653095300 -1.260613213700
H   -3.617892061600  2.136110447000  0.152398357800
H    1.131220429400  1.166813620300  2.253323502000
H    1.740992872300 -0.254609194400  1.388768329100
H    2.977546328200  2.165673779300  0.969695318000
H    1.490626449400  3.236348304400 -0.991289977500
H    0.639563240000  3.229615592100  0.581602561400
H   -0.790008757200  1.810828529300 -0.991542876100
H    0.635380364700 -0.317169723000 -1.765638582100
H    0.867169560700  1.178490331700 -2.692390172000
H    4.363935339400 -0.148200275000  1.035764587900
H    5.052042578200 -2.397236816400  1.758862848200
H    4.271336131400 -4.386781610300  0.522533114700
H    2.830932373200 -4.110757164600 -1.461935610900
H    2.151845039700 -1.868933730800 -2.194551772200
H   -1.727517253500 -1.637186154000  0.576102187100
H   -3.482354450600 -2.692968203500 -0.836832581200
