43
-65.59082015
C   -5.300150792500 -1.818794194500 -2.024234033500
C   -4.310529203900 -1.078704791700 -1.180735973500
C   -3.281703735600 -1.770792456400 -0.542305780300
C   -2.368938947600 -1.103151444600  0.251996580500
C   -2.482899647100  0.266199879900  0.407928916400
S   -1.265782035800  1.094889311700  1.413036737900
O   -1.571431530900  2.508161544000  1.484659554600
O   -1.114140117500  0.403742198200  2.668712534300
N    0.122265290100  0.798263513500  0.514189517800
C    1.376363118400  0.909879588200  1.265673229400
C    2.263356083300  1.758424810400  0.359850098100
C    1.236843226300  2.742619472500 -0.198305085600
C    0.248783342200  1.672111265100 -0.653513927200
C    0.967317222900  0.910443669300 -1.765822577300
P    2.763560679200  0.825908759500 -1.213166913600
C    2.967425921600 -0.887991061400 -0.578531075500
C    4.284988228900 -1.267646927700 -0.328041006700
C    4.579337635200 -2.535645853800  0.138786226100
C    3.557588919900 -3.447360088700  0.347930072400
C    2.245708302800 -3.081409921700  0.093501202100
C    1.947929362200 -1.810769585200 -0.367603463100
C   -3.492466562600  0.974351435500 -0.212056876900
C   -4.405167011500  0.297809451500 -1.005052859800
H   -5.918850297200 -1.132563850300 -2.595318006500
H   -4.789934293800 -2.492526090500 -2.709326235300
H   -5.948812006700 -2.421349515700 -1.388986326100
H   -3.201601143400 -2.840008938300 -0.670579089800
H   -1.571151286700 -1.617086157600  0.764147131800
H    1.190767496100  1.411309445800  2.223162107100
H    1.771044748400 -0.086024375700  1.476740152800
H    3.114954884000  2.197361370700  0.878539384200
H    1.610121642100  3.350586472300 -1.021514184900
H    0.808507178200  3.381081346500  0.575559700800
H   -0.740329057800  2.032254998300 -0.940532622300
H    0.531959437700 -0.068877572000 -1.955737339200
H    0.924794927200  1.484976975300 -2.694771796200
H    5.079577517500 -0.554137721800 -0.502648519100
H    5.604570277500 -2.815201909100  0.334087340800
H    3.782358707800 -4.441035883500  0.707328588400
H    1.447318156000 -3.791114657500  0.258080743200
H    0.918003663400 -1.536988810000 -0.540365852800
H   -3.550524895700  2.041376707100 -0.060276266600
H   -5.197797539300  0.847362371000 -1.490545355200
