43
-65.59166834
C   -5.251266868800 -1.946041800100 -1.960447641100
C   -4.279717628300 -1.158535678100 -1.138905831300
C   -3.172449167300 -1.786849844700 -0.570399548300
C   -2.276878031000 -1.074791907100  0.205236094000
C   -2.488687717100  0.275777000400  0.412885313100
S   -1.297577832200  1.165425040700  1.397231958100
O   -1.626337335000  2.575746263900  1.399931811000
O   -1.154458773200  0.534751992200  2.685917684900
N    0.099208109800  0.845584273900  0.528278696200
C    1.354537152000  0.904237488400  1.278818774500
C    2.270534922000  1.750027834600  0.394221707000
C    1.270260584700  2.749460521000 -0.185958128700
C    0.268773110700  1.695335573700 -0.648150336600
C    0.982039043300  0.878280695200 -1.724605233400
P    2.784997201800  0.834542466300 -1.178216881400
C    2.987249299100 -0.884449326700 -0.579480378400
C    3.820380981600 -1.122247812600  0.513179040800
C    4.069057875400 -2.413912616800  0.938603068900
C    3.508585076400 -3.487415454600  0.264526992000
C    2.714830330800 -3.261517269000 -0.847447666900
C    2.464103171800 -1.969323723100 -1.275273073500
C   -3.576892862800  0.921674675300 -0.138339875800
C   -4.470763469300  0.200806633500 -0.913247642000
H   -4.727664847200 -2.633334267800 -2.620866730100
H   -5.891308517000 -2.537117841300 -1.305483997400
H   -5.882550429400 -1.291062433600 -2.554227525400
H   -3.014979542800 -2.841775009600 -0.738904154800
H   -1.415037204600 -1.541120739000  0.655493939300
H    1.182927990400  1.382627235300  2.250137774200
H    1.717677182700 -0.109659043600  1.459587104400
H    3.111222305200  2.185946952500  0.932692124300
H    1.668606770800  3.343740951400 -1.007805060600
H    0.840061675200  3.402095090400  0.574862696900
H   -0.705710663400  2.072837440900 -0.961026484400
H    0.548168118900 -0.116857528500 -1.809713475900
H    0.912776498400  1.378236859900 -2.693134366400
H    4.268025890400 -0.286239216500  1.033778151900
H    4.703926352300 -2.584473216200  1.796335204100
H    3.700545824300 -4.496579043600  0.598557073300
H    2.293113283300 -4.096530665100 -1.388493513100
H    1.863775374200 -1.808376580500 -2.159289004400
H   -3.705671215300  1.976967193000  0.047726037600
H   -5.323921212500  0.701525684000 -1.346158214100
