43
-65.59235453
C   -3.975245579400 -3.530845573200  0.188397253100
C   -3.354044329400 -2.180113753100  0.016589722800
C   -3.342648948800 -1.257209022900  1.057180656700
C   -2.763219656900 -0.010106619700  0.890682259100
C   -2.196025006400  0.313783813200 -0.324885265300
S   -1.377318951000  1.881033909600 -0.548180952200
O   -1.546470873700  2.331044551100 -1.908239419100
O   -1.778877413100  2.791409446600  0.502811742200
N    0.212260500600  1.397311790000 -0.366394488300
C    0.690439089200  1.331959152200  1.011950588700
C    2.141284384500  1.788664834800  0.897620453500
C    1.996454689200  2.911203807000 -0.129706804500
C    1.245384439500  2.067422623200 -1.157014657900
C    2.257828516600  1.018241625800 -1.617475333100
P    3.202218161600  0.542887848400 -0.062551827700
C    2.447914645200 -1.058091243000  0.441848745800
C    3.169285645300 -1.776643174400  1.393929530500
C    2.716695241000 -3.001922748000  1.848466696100
C    1.538827635100 -3.531251695100  1.346883414800
C    0.819213619400 -2.827625671000  0.394876214600
C    1.268108815700 -1.599861834200 -0.059057397500
C   -2.190090395300 -0.587479150700 -1.373282767000
C   -2.770172765300 -1.830140232200 -1.200224794400
H   -4.506724900400 -3.599498767700  1.133277208400
H   -4.670256978900 -3.734267291200 -0.624086945600
H   -3.206974719500 -4.302904013300  0.166382854900
H   -3.791459587000 -1.512893066100  2.005414399000
H   -2.752811939500  0.722163244900  1.682906287900
H    0.109076024700  2.024079656300  1.634931223900
H    0.570137225800  0.320628032100  1.406615966100
H    2.583662311900  2.068947409400  1.853096819100
H    2.945307626600  3.287837987500 -0.509376574900
H    1.391795411300  3.737355299300  0.247585377800
H    0.770412246400  2.605021753800 -1.978496129400
H    1.791055781900  0.164444168000 -2.105586076200
H    2.962291794900  1.466427177700 -2.323084932000
H    4.092616692300 -1.361835635300  1.776179809200
H    3.284363501000 -3.546107899300  2.589414776100
H    1.183654060400 -4.490027945700  1.695440113300
H   -0.101593452800 -3.232462547400  0.001313414500
H    0.679414907600 -1.059874047400 -0.785343029100
H   -1.744591629100 -0.291288422300 -2.310071765200
H   -2.773979372600 -2.538494481300 -2.015598894200
