43
-65.59269001
C   -4.185693837800 -3.330147458400  0.758483766700
C   -3.519130626000 -2.049753099900  0.364148230300
C   -3.796748990700 -0.863242580200  1.035253094000
C   -3.161689534700  0.315456718100  0.680348766000
C   -2.249052052200  0.304534428100 -0.354863591800
S   -1.371607880700  1.787600882700 -0.810409062300
O   -1.498850501500  2.030983040100 -2.226214320000
O   -1.759299431700  2.868476180800  0.072702049900
N    0.198611010300  1.283910196300 -0.532511649900
C    0.556833899200  1.214348296700  0.881464935100
C    1.975134426400  1.782055575600  0.920288218300
C    1.854603349800  2.900079335700 -0.115628191300
C    1.267938188900  2.015459119700 -1.212075045700
C    2.367430106600  1.014649452600 -1.566327109100
P    3.224117360800  0.643198149200  0.069134348300
C    2.573715957400 -1.014588759900  0.500893971800
C    2.431916783500 -2.023160627300 -0.445893079400
C    2.008365355200 -3.285099816100 -0.066307237400
C    1.746704099400 -3.563295701400  1.264494043600
C    1.932717830600 -2.578355198900  2.221665107500
C    2.354239756300 -1.316997725500  1.844725382900
C   -1.957778399300 -0.860594569100 -1.039593137900
C   -2.592239518500 -2.033764574600 -0.677053969600
H   -5.068154331500 -3.141143062000  1.363274138200
H   -4.472120264000 -3.900677951900 -0.121921758600
H   -3.494979854300 -3.940063589700  1.340565904600
H   -4.514243456900 -0.858998583100  1.842257031400
H   -3.361350663900  1.245991357900  1.188980530400
H   -0.127674420100  1.844676462600  1.463757165400
H    0.474080188200  0.184555789800  1.234434718900
H    2.289752963900  2.096314937000  1.914887576400
H    2.808174616400  3.344278505200 -0.398877500100
H    1.157420213900  3.678623627300  0.197780384100
H    0.849992662600  2.525846112100 -2.080716156300
H    1.950811471300  0.123478961300 -2.032384233700
H    3.086940091300  1.465759368300 -2.253500002500
H    2.657611146600 -1.829082341200 -1.484688922800
H    1.888994860300 -4.056622217500 -0.813484795700
H    1.413934185500 -4.548082349000  1.557913666500
H    1.752192184200 -2.795229379800  3.264802821200
H    2.510936081900 -0.552576948800  2.594128897300
H   -1.244108511400 -0.824751567800 -1.846631939900
H   -2.369510831700 -2.948892431400 -1.205034464600
