43
-65.59291034
C   -3.595766228800 -3.664502037600  0.381926675200
C   -3.084751068900 -2.275358476400  0.160986787400
C   -2.861903350900 -1.433389676500  1.248696206000
C   -2.390257588400 -0.147049419300  1.061802207700
C   -2.141297393900  0.301567685900 -0.221248958100
S   -1.403894935000  1.905813971600 -0.463921154400
O   -1.666127862500  2.375979586500 -1.802352728000
O   -1.771203260800  2.779568505400  0.629846638300
N    0.201821901300  1.474161735500 -0.373777603800
C    0.793978288000  1.447065779600  0.957088728000
C    2.252466915200  1.810293518600  0.689455767200
C    2.074972484400  2.893511688500 -0.374789729200
C    1.183394258600  2.054501171400 -1.286674735900
C    2.076300600200  0.919774266600 -1.788343663400
P    3.143946942500  0.465220194000 -0.305388908800
C    2.335226519600 -1.048446091300  0.340702374800
C    1.795449086600 -2.030390960400 -0.481597099200
C    1.254328183200 -3.181418928900  0.065073944400
C    1.266745894800 -3.378103107500  1.435119355200
C    1.846772871700 -2.427167553300  2.259968041400
C    2.386565882700 -1.277008708000  1.716256450500
C   -2.355734217000 -0.512463122100 -1.315263427700
C   -2.832123166100 -1.797755368500 -1.121087004400
H   -2.986678384200 -4.178367456200  1.123104234000
H   -4.617346640500 -3.629606810200  0.759534849600
H   -3.588071391100 -4.236200850400 -0.541780012600
H   -3.057605571100 -1.792105962900  2.248233320300
H   -2.219512822800  0.521801551600  1.890774074000
H    0.309483873900  2.199647055100  1.593695567000
H    0.650569005600  0.463400319500  1.408678229900
H    2.796893705700  2.113692433300  1.583064108000
H    3.003644078800  3.193170036500 -0.858788778500
H    1.558504283600  3.771788259100  0.014892681300
H    0.661024262600  2.583754381300 -2.084321236100
H    1.484136908300  0.081902620100 -2.151106434200
H    2.721126408000  1.269044606600 -2.598153579200
H    1.797135734300 -1.906230399600 -1.554616106600
H    0.822824120300 -3.929267473100 -0.584509607100
H    0.840155252400 -4.275255280300  1.858954923100
H    1.880304874900 -2.583739691100  3.328743841700
H    2.847715779800 -0.539140745100  2.359588725600
H   -2.152732332600 -0.121983352700 -2.300148623200
H   -3.004645245000 -2.436752774400 -1.974391774600
