43
-65.59242812
C   -4.183377311800 -3.468819276000  0.334946324900
C   -3.511505216900 -2.140126833800  0.183734769700
C   -3.266299465700 -1.328792513600  1.286695007800
C   -2.653103991800 -0.096001714300  1.135867315800
C   -2.284357891300  0.324719967500 -0.125873971400
S   -1.437108843800  1.877998571600 -0.340379844200
O   -1.736852408800  2.413590793700 -1.645986966800
O   -1.700022097700  2.731396606900  0.798550904800
N    0.152825633900  1.349870362500 -0.353277280100
C    0.788265442200  1.261035988700  0.959924426900
C    2.205381284500  1.767321995300  0.704959919500
C    1.924355432000  2.893708619000 -0.288920098000
C    1.091106621000  2.038289819100 -1.240350380100
C    2.068386079700  1.008555167500 -1.808185154900
P    3.204122223900  0.571880037800 -0.374691285100
C    2.591698797400 -1.059335741900  0.215092964300
C    1.397735308000 -1.671077005000 -0.154260036000
C    1.069251407700 -2.915557828800  0.355028518000
C    1.922271616000 -3.563514441900  1.233643424500
C    3.114158492200 -2.963146812200  1.605020241600
C    3.447710154800 -1.722760760300  1.092834037700
C   -2.512258449700 -0.465226921100 -1.237372767800
C   -3.127761339500 -1.692886871500 -1.079836737600
H   -3.589636423300 -4.250989737600 -0.134456706100
H   -4.329704754800 -3.716713704700  1.382302823100
H   -5.154872336700 -3.452380852700 -0.157593096100
H   -3.558509132900 -1.660505266900  2.271879002400
H   -2.465819533600  0.551555638600  1.978083535500
H    0.260882638600  1.916238555400  1.664553596700
H    0.742264633700  0.235579996600  1.333035522600
H    2.732125362900  2.052541733700  1.615159750100
H    2.818426534600  3.298888782500 -0.761100690400
H    1.339898993400  3.700027056700  0.157184408100
H    0.526629514700  2.570903085800 -2.006308196500
H    1.566225670700  0.140720254400 -2.232338123900
H    2.673238643400  1.466244533900 -2.595451695700
H    0.709466292700 -1.174038411100 -0.821731935000
H    0.139911561700 -3.382426700800  0.063335474200
H    1.659191153500 -4.535002079400  1.625914062500
H    3.785027668600 -3.463864328300  2.288066630300
H    4.381562765000 -1.252218215700  1.370850576500
H   -2.215250335500 -0.095550273700 -2.206282071200
H   -3.314280386700 -2.314163495500 -1.943330801700
