43
-65.59083048
C   -5.177462158400 -2.243297215500 -1.465115648200
C   -4.195168055800 -1.354078511100 -0.769987364900
C   -3.167220871700 -1.888322442400  0.002531740300
C   -2.269823732900 -1.059985442800  0.653089159000
C   -2.402020297900  0.309710622700  0.530259183500
S   -1.186348830100  1.339667567400  1.329846960300
O   -1.561873918000  2.731031682500  1.192858399700
O   -0.938394336800  0.861785955000  2.666816108200
N    0.161978044700  0.962825577200  0.406321001300
C    1.458457598900  1.091513312500  1.075905752100
C    2.326485849100  1.790197495300  0.034046696400
C    1.315591139900  2.766068604200 -0.565473703100
C    0.250770536900  1.709746816300 -0.848902034200
C    0.860212245600  0.805260543700 -1.918266455300
P    2.678264935100  0.669539005300 -1.454912377900
C    2.824389542400 -0.976032463900 -0.646916501000
C    1.772493675900 -1.820481639600 -0.307116722700
C    2.029406797800 -3.049651866600  0.275319596800
C    3.331544070800 -3.450968269400  0.525616742600
C    4.385265814700 -2.616949658800  0.189306852700
C    4.131711175200 -1.391995251200 -0.399959382500
C   -3.415228394300  0.864888136100 -0.227112408700
C   -4.309484678100  0.030408393400 -0.874131872300
H   -5.352602698600 -1.899524016400 -2.482187936700
H   -4.825099920200 -3.270511170500 -1.491704580700
H   -6.131528853100 -2.220623656400 -0.938679469000
H   -3.069335469900 -2.959747376400  0.094783100700
H   -1.470335319400 -1.449404208500  1.263167110600
H    1.352437544800  1.701726350800  1.980934387000
H    1.820737722500  0.105490731500  1.373983521100
H    3.230250075200  2.232781072700  0.451489548200
H    1.665247707800  3.265595556300 -1.468115280000
H    0.968862710900  3.503532290900  0.159809712200
H   -0.736797964300  2.092205205500 -1.109880689600
H    0.363350389600 -0.160737292900 -1.987189489100
H    0.793778052800  1.289819447600 -2.895838750900
H    0.749857750300 -1.516755426100 -0.472800270200
H    1.206389017400 -3.698971825400  0.538056340800
H    3.524030950300 -4.411718201700  0.980552716000
H    5.403190270300 -2.924149455600  0.381155517900
H    4.950904493000 -0.740444889300 -0.674614311200
H   -3.489392277200  1.939666986800 -0.291521465600
H   -5.105020684700  0.456358138800 -1.467255473300
