43
-65.59167414
C   -5.497915099400 -2.100931283900 -1.326311502100
C   -4.452652398000 -1.237474083600 -0.692943482300
C   -3.353972620200 -1.796648856300 -0.046271055500
C   -2.389357226100 -0.990909767700  0.533158625100
C   -2.525265415100  0.382016717300  0.462997687000
S   -1.257194706700  1.387654448400  1.211393623800
O   -1.539495613100  2.786305949300  0.964355724000
O   -1.075612022300  1.002100431800  2.588752881700
N    0.090226652000  0.855669696900  0.362461076300
C    1.376879810700  1.029845469500  1.039921623700
C    2.251586895600  1.741507779700  0.005989200800
C    1.216786381600  2.609608388800 -0.709185457300
C    0.225234736600  1.475813222600 -0.953168113900
C    0.930628716900  0.484138579800 -1.878735096400
P    2.752261427200  0.594302738300 -1.408543071000
C    3.050106344200 -0.992552744300 -0.544831428700
C    2.563881075200 -2.196652795100 -1.043719157500
C    2.891697213300 -3.392122489900 -0.428068141500
C    3.726189872600 -3.402470657300  0.676992495100
C    4.247607323800 -2.211062839600  1.156339908500
C    3.921834474200 -1.015589734000  0.543277158900
C   -3.605390491500  0.962386421100 -0.173942236600
C   -4.565987893100  0.150055732000 -0.749852407400
H   -5.487011482900 -1.967771308400 -2.407390384800
H   -5.326454336700 -3.150049008200 -1.103569707400
H   -6.487209419100 -1.820998211400 -0.969441490900
H   -3.253622155900 -2.870467314100  0.006277232300
H   -1.533484995100 -1.403256168400  1.043367589500
H    1.237857521800  1.641227060000  1.938489026500
H    1.758917504400  0.054120081600  1.348582689100
H    3.091657044300  2.278383121500  0.444954491200
H    1.583536304400  3.058483179200 -1.631996040400
H    0.790471822200  3.376846817900 -0.061703721500
H   -0.760813433700  1.777492097700 -1.309032301900
H    0.528460748100 -0.520062769400 -1.751579031400
H    0.810637971000  0.783671773800 -2.922088109500
H    1.931581189100 -2.203894308100 -1.920151046600
H    2.498784982700 -4.320707037100 -0.816874608200
H    3.980009472700 -4.336419208000  1.156732564100
H    4.913673386100 -2.214926920200  2.007291078200
H    4.339017765500 -0.087906224800  0.911480432500
H   -3.675073953100  2.038983175800 -0.204322900100
H   -5.414274931500  0.595354123300 -1.248127366700
