43
-65.59157583
C   -5.066031412500 -2.148439268800 -1.912968071800
C   -4.155763808100 -1.275026980700 -1.107996033000
C   -4.369873046700  0.095878161200 -1.015717847900
C   -3.516195240200  0.896995533800 -0.274175366200
C   -2.446043735200  0.319462439900  0.377864513800
S   -1.297161025500  1.310873609400  1.314199993800
O   -1.658515856800  2.708164033000  1.197703390900
O   -1.166500132800  0.784245728400  2.650213162000
N    0.119448781700  0.959054468300  0.494452450200
C    1.359261680500  0.964037333600  1.270675367200
C    2.338694723900  1.731044616700  0.382681218200
C    1.410784565200  2.778058214100 -0.232443665300
C    0.353494060700  1.778401826300 -0.691879126000
C    1.031721206500  0.903759738500 -1.745283290400
P    2.816870494100  0.749761503500 -1.162336859400
C    2.893421681500 -0.964107511800 -0.520444980400
C    3.709036530700 -1.227343480600  0.579896903400
C    3.866509846000 -2.519569235300  1.044759327300
C    3.230038355600 -3.570670571200  0.403366108400
C    2.452584497500 -3.322775275300 -0.715281354000
C    2.293881314000 -2.029691847400 -1.183168634700
C   -2.211971751600 -1.041567118300  0.303331541500
C   -3.066841009900 -1.833688127600 -0.439032757300
H   -5.904153401900 -1.581976358800 -2.308390195400
H   -4.519865930300 -2.590761555800 -2.745057185500
H   -5.448377609300 -2.962102975500 -1.299317345400
H   -5.209267749600  0.543627612000 -1.526574074800
H   -3.664593742300  1.962660112800 -0.190027535500
H    1.198216861900  1.476424069300  2.226354491100
H    1.660127974900 -0.063868331000  1.484064078600
H    3.197788365400  2.124773334500  0.924591219600
H    1.857172696700  3.330748730500 -1.058540195600
H    1.011468401500  3.471212423200  0.509205173900
H   -0.592496870600  2.208413227100 -1.023118123500
H    0.534991345200 -0.061564463400 -1.829406258900
H    1.014727163800  1.395855133200 -2.720200528800
H    4.214906391300 -0.409207402600  1.075065647900
H    4.489413285700 -2.708597057800  1.907385434200
H    3.350547208200 -4.580250809400  0.768161669500
H    1.971396349300 -4.141693897900 -1.230701736200
H    1.704840894700 -1.854877250500 -2.072015029800
H   -1.365833363000 -1.453099939800  0.830236878300
H   -2.892501349100 -2.897433470300 -0.503623678600
