43
-65.59075662
C   -5.379161577700 -1.581857125400 -2.135740953600
C   -4.378622538200 -0.948275752500 -1.221465341300
C   -3.333572487000 -1.699387432100 -0.686943294000
C   -2.394597348900 -1.113101956400  0.141960562000
C   -2.499643183400  0.233426719600  0.435840756600
S   -1.255944973100  0.961349415000  1.485779678800
O   -1.537118320800  2.369075039300  1.673351111800
O   -1.098370881200  0.172357936400  2.681388347800
N    0.118290834900  0.717570662700  0.549751470100
C    1.379099969100  0.844425590300  1.288162892400
C    2.227097559900  1.750079285200  0.400234264900
C    1.162909212400  2.719058648200 -0.111946525300
C    0.202506095700  1.633337166700 -0.589522106100
C    0.928874095400  0.929570728100 -1.734552222700
P    2.734787730500  0.886451079700 -1.208944236700
C    3.005466636100 -0.838114517100 -0.631020449300
C    4.338231391900 -1.177586994500 -0.404286503900
C    4.682148266600 -2.447431896100  0.021701425000
C    3.695545644500 -3.400834523100  0.213285412500
C    2.368991886700 -3.074806742000 -0.018124737100
C    2.021723117500 -1.802600064400 -0.438521646300
C   -3.526597134900  0.999614670600 -0.079600056000
C   -4.464096119000  0.405092601300 -0.906960845800
H   -5.520113922400 -2.630983816200 -1.889548478900
H   -6.335740832100 -1.069187022100 -2.079998155700
H   -5.023967039600 -1.522186804800 -3.164773718200
H   -3.259093154700 -2.750836438400 -0.921279101200
H   -1.584566189600 -1.676367729600  0.577232055100
H    1.190528317900  1.309781699900  2.263330213000
H    1.807135560800 -0.144706667400  1.462380938700
H    3.071336518100  2.198331004000  0.922961087300
H    1.505708060500  3.364826676900 -0.919500337400
H    0.725494375500  3.317728842300  0.688103080900
H   -0.800949403200  1.971395074600 -0.853244303900
H    0.522092674800 -0.057188847200 -1.947772196300
H    0.854497822000  1.529833402700 -2.645023815900
H    5.105098026100 -0.431153032300 -0.564677588500
H    5.718578604100 -2.695725658100  0.199334393500
H    3.959141286300 -4.395838699400  0.541229153400
H    1.597706556500 -3.816724253100  0.133254290500
H    0.981126187700 -1.560736003300 -0.593656136400
H   -3.576700204900  2.046070740400  0.180091716200
H   -5.270801146400  0.998365851200 -1.311000271700
