43
-65.59247089
C   -4.138796269900 -3.509921570800 -0.105734929700
C   -3.472929607700 -2.170328250000 -0.067735470400
C   -3.156965368200 -1.503336070400 -1.249041659800
C   -2.558155023900 -0.256671473000 -1.217542466200
C   -2.280175572100  0.329533616700  0.002351782900
S   -1.446696094700  1.904610531400  0.025786974500
O   -1.786727968300  2.648922653900 -1.162247059800
O   -1.678192638700  2.553551085800  1.298540768900
N    0.143596265300  1.398120600200 -0.120722266900
C    0.817309421200  1.093791801100  1.140021267200
C    2.227356455100  1.638016628600  0.929410892700
C    1.919351033600  2.915150013700  0.148504876600
C    1.054678068700  2.230391084000 -0.907267250300
C    2.012741723700  1.315816317600 -1.671038788600
P    3.186669721500  0.641199963900 -0.366378067200
C    2.580911701800 -1.066619471500 -0.048553628100
C    1.371943499000 -1.602369610100 -0.481931343700
C    1.052020164200 -2.917629206700 -0.192632555900
C    1.928608437700 -3.712247690000  0.528284731200
C    3.134593988800 -3.187635365000  0.963469413600
C    3.459503672100 -1.875886253100  0.670111019600
C   -2.583261796800 -0.311209581400  1.187618914100
C   -3.179226277300 -1.559704727200  1.148601277700
H   -3.880487436700 -4.097507063500  0.771364091500
H   -5.221223598700 -3.379389462800 -0.116552023900
H   -3.858719017600 -4.058503902500 -1.001301601200
H   -3.380684564200 -1.965060071500 -2.199318933600
H   -2.310868615100  0.280423975500 -2.119798130900
H    0.313316684200  1.622104775700  1.959113378200
H    0.779431522800  0.020495288400  1.338975852600
H    2.783578679100  1.767080239300  1.857426910500
H    2.799576543900  3.396193773800 -0.276104181600
H    1.351429656800  3.633427260200  0.742008180500
H    0.467347522100  2.882764913300 -1.554180793600
H    1.497026397400  0.532524535200 -2.223891420700
H    2.596292068700  1.903668908600 -2.384490877600
H    0.665807334100 -0.994127896500 -1.027541388200
H    0.111402416600 -3.324695594100 -0.533785984400
H    1.672704940900 -4.738400646200  0.748318714500
H    3.823438786000 -3.802288290800  1.524766881700
H    4.404520425600 -1.462960858900  0.997559300000
H   -2.357925848200  0.181739231900  2.120315970700
H   -3.419679540600 -2.065238337800  2.072006494500
