43
-65.59321996
C   -6.169273938400 -1.135412272500  1.151291153200
C   -4.831885362000 -0.792387998000  0.574021508100
C   -4.594046298100  0.474161966600  0.044549419800
C   -3.352933011500  0.803386169500 -0.469471948900
C   -2.343837042700 -0.140737361100 -0.456869267800
S   -0.737005544800  0.315830679900 -1.079856202000
O    0.078424500900 -0.873597969200 -1.193853611500
O   -0.883213628900  1.128869520800 -2.262292007300
N   -0.220427101500  1.320367385200  0.149707938200
C    0.336780397700  0.668805681200  1.331414336800
C    1.536984672400  1.543928367200  1.701484891100
C    1.065290168400  2.914035845900  1.206697875600
C    0.657141705800  2.435639983800 -0.182939110900
C    1.943392671200  1.938956529800 -0.853093764000
P    3.009965154400  1.275554628000  0.550577885100
C    2.980516038000 -0.531277734600  0.261855495400
C    2.876243324900 -1.403917602500  1.343284378500
C    2.945985471000 -2.770678898400  1.148014101200
C    3.145521308300 -3.281133913300 -0.124293054100
C    3.293439798000 -2.418025259400 -1.196986898100
C    3.223272109400 -1.050544046100 -1.005037839000
C   -2.554167088500 -1.402871440800  0.062487694700
C   -3.798717630100 -1.725286374900  0.575792822600
H   -6.363924502400 -2.201813665400  1.074199729200
H   -6.193140127800 -0.863293068800  2.206787563800
H   -6.961526320000 -0.589295422900  0.645967548500
H   -5.388380447200  1.205614585800  0.034597234600
H   -3.150697369800  1.774584470400 -0.892329080100
H   -0.418594495800  0.673174354200  2.127191432300
H    0.599317520200 -0.366224087100  1.099797251300
H    1.803547802600  1.494384569100  2.756776915000
H    1.857876581700  3.660832930400  1.171843263000
H    0.216239654400  3.292056656400  1.774463860400
H    0.108695991200  3.143669378100 -0.806024087500
H    1.714815204700  1.175529417400 -1.597820429100
H    2.464012707100  2.763594524800 -1.347150412500
H    2.731611088200 -1.006337195600  2.339096531200
H    2.845538609000 -3.440152810600  1.990670577800
H    3.194228926500 -4.349418519700 -0.278404600300
H    3.463581231500 -2.811499011100 -2.189128267600
H    3.352214383000 -0.384594190900 -1.847358150900
H   -1.742235980200 -2.113487364900  0.046476120600
H   -3.969856101300 -2.711784124900  0.980364707100
