43
-65.59250508
C   -3.987660910100 -3.557228346800 -0.265041266400
C   -3.361893500600 -2.198128660300 -0.235832179500
C   -2.902614184500 -1.601379998600 -1.407208930100
C   -2.339091627400 -0.337979640200 -1.381942518400
C   -2.239993254200  0.334436291500 -0.179229896600
S   -1.432224009200  1.922723501300 -0.152704579800
O   -1.671465864000  2.612480227300 -1.396854966100
O   -1.779325369300  2.620013332800  1.067089100000
N    0.164951454300  1.428359311500 -0.141232796200
C    0.722725843100  1.145881560700  1.178989698600
C    2.156904971800  1.654688002500  1.069972355900
C    1.940103812900  2.921200067500  0.242252769100
C    1.148506062100  2.232349677900 -0.867013889400
C    2.147205724700  1.287736432300 -1.536505616100
P    3.190444386300  0.608645556300 -0.127208870000
C    2.511800392200 -1.076625492100  0.163732200100
C    3.308665114400 -1.902008798300  0.955590995500
C    2.921531407100 -3.198898865000  1.239612364500
C    1.734342032000 -3.692202037100  0.723550198800
C    0.939261584600 -2.881585653200 -0.070344201100
C    1.322216548800 -1.581785756100 -0.352296011200
C   -2.688791308800 -0.235202784800  0.996156713800
C   -3.249729766000 -1.499709799700  0.963837422100
H   -3.752195250600 -4.111143145900  0.640304338700
H   -5.071879027000 -3.459558704700 -0.324613516200
H   -3.652343208900 -4.123384722800 -1.129833115200
H   -2.985639056100 -2.130617871400 -2.344996820600
H   -1.983591891800  0.145590791900 -2.278345271400
H    0.164816733700  1.707290753300  1.939319509800
H    0.643602327500  0.079646160800  1.402668775000
H    2.641938277200  1.791483012400  2.036061584500
H    2.861621405300  3.375553999200 -0.119388088700
H    1.342900366300  3.662768983300  0.775108883800
H    0.625512519500  2.882092387200 -1.569551862600
H    1.663646989400  0.506049704200 -2.119899524400
H    2.801055152100  1.852717552000 -2.206057861900
H    4.239352872300 -1.513652069600  1.347747925300
H    3.547298924500 -3.826105700900  1.858024535800
H    1.430298213900 -4.706478169900  0.937263502700
H    0.011786038700 -3.261299895500 -0.473431490700
H    0.676955201400 -0.960926772800 -0.955901813200
H   -2.599167384300  0.324363238400  1.914120424200
H   -3.603666333400 -1.950569896500  1.878983619300
