43
-65.59093941
C   -4.695857383000 -2.969200626200 -0.947880937400
C   -3.886559681300 -1.797897584000 -0.486878471000
C   -3.063079250500 -1.896537517700  0.631686271800
C   -2.298453506300 -0.819262275200  1.043876284400
C   -2.362248437500  0.365223875600  0.335892008200
S   -1.318168759000  1.720351083100  0.840015185000
O   -1.790176036900  2.936960061400  0.216331681200
O   -1.187793020500  1.720728252500  2.276840580800
N    0.141742070700  1.235675151400  0.173628257000
C    1.317379968200  1.221417585900  1.043729008100
C    2.430226381200  1.754482535800  0.145722872300
C    1.671325563100  2.813226982200 -0.652096750500
C    0.535526168900  1.884412562400 -1.075249629600
C    1.187529238800  0.844747627100 -1.986257683900
P    2.880378280100  0.529685884700 -1.229054856400
C    2.707804925200 -1.083101224400 -0.362382382700
C    1.522865215000 -1.778130874900 -0.141870386300
C    1.546945103300 -3.002448786400  0.504026934700
C    2.745215373000 -3.546312416500  0.937238817300
C    3.929881678100 -2.861363067400  0.721616765100
C    3.909676228700 -1.642353682200  0.069398708200
C   -3.171837715200  0.488922273800 -0.776509956400
C   -3.932205906300 -0.593067395900 -1.184008924500
H   -5.659316488100 -2.644677007100 -1.333233634200
H   -4.170849850100 -3.484681395200 -1.752360391200
H   -4.854751654200 -3.676269956400 -0.138361081900
H   -3.022006425200 -2.823325289400  1.184438509700
H   -1.660950895600 -0.871205971300  1.912371578300
H    1.149373581900  1.875107528300  1.907469294300
H    1.494779314100  0.209267323500  1.414445508200
H    3.300779230500  2.104384164100  0.699549671400
H    2.228826601700  3.210526343900 -1.499486065300
H    1.315018979700  3.631140427800 -0.024098994900
H   -0.334794267100  2.371410701300 -1.515211436400
H    0.591038221800 -0.060435369000 -2.087076261700
H    1.334650261700  1.265395497200 -2.984390634100
H    0.575175464600 -1.362957683700 -0.452090430100
H    0.622302771000 -3.535829516400  0.670957244200
H    2.755496532400 -4.502382217200  1.440089347800
H    4.868095132200 -3.280204642600  1.055816699500
H    4.832450351900 -1.107140105400 -0.112273948100
H   -3.202571966900  1.433557845800 -1.296757251400
H   -4.569649053000 -0.501928704900 -2.050911954500
