43
-65.58582827
C   -4.960652744000 -0.989964573400 -2.454994250700
C   -3.927199380400 -0.672521852600 -1.420922529700
C   -4.023592521100  0.476488091800 -0.641303902500
C   -3.071334103200  0.760264869000  0.323046202300
C   -2.011085783600 -0.107106833900  0.498956365500
S   -0.783604590200  0.234858234900  1.752394214100
O   -1.481103029600  0.743834137300  2.910032199300
O    0.029584890400 -0.940241892100  1.967018873600
N    0.198696006600  1.464604559100  1.190152034400
C    1.634997285200  1.329715018100  1.403716751900
C    2.246549123300  2.084930207700  0.224333168200
C    1.175073610500  3.148938330000 -0.026914426300
C    0.001268268600  2.170797669400 -0.062791099700
C    0.266735893800  1.281534869500 -1.285676936800
P    2.140268494700  1.117237822400 -1.392640445200
C    2.406016162800 -0.611520337500 -0.850477066500
C    3.494317756800 -0.918825934500 -0.036239132600
C    3.759872338900 -2.229901303400  0.311958075300
C    2.958636267500 -3.252954394400 -0.168549134300
C    1.904331549700 -2.959696701800 -1.016718274000
C    1.635542295900 -1.648441519700 -1.366042107300
C   -1.903092339800 -1.265586267300 -0.248449043700
C   -2.860235442800 -1.543434622500 -1.207445910800
H   -5.581023760700 -0.123800562700 -2.666699580000
H   -4.490218314400 -1.326074448000 -3.376353704500
H   -5.603692662100 -1.794387471400 -2.098434637100
H   -4.852707052300  1.152858431500 -0.785883171700
H   -3.142895769500  1.633837152100  0.951966006300
H    1.896526756100  1.804187964500  2.358950341400
H    1.910269025200  0.274176111400  1.463267170900
H    3.246042642100  2.468035113100  0.426794751700
H    1.302255323300  3.683362716900 -0.967898836200
H    1.092560548800  3.854413598900  0.798524292000
H   -0.991152496600  2.624300882100 -0.078051757000
H   -0.218841873100  0.311836392300 -1.197208996800
H   -0.102870971700  1.771248737300 -2.190320909000
H    4.128695269100 -0.123223952100  0.331098356700
H    4.595306633500 -2.455274076900  0.959483453900
H    3.163291595800 -4.276768235000  0.108774606200
H    1.290702566300 -3.757379293200 -1.411040130500
H    0.825232694300 -1.432764367700 -2.048864877400
H   -1.071655781600 -1.926942334000 -0.057298643200
H   -2.782491754600 -2.445617025300 -1.795744069000
