43
-65.59246874
C   -4.076268947600 -3.498989799300  0.420867302900
C   -3.427779146000 -2.165510219300  0.219526135300
C   -3.203976101800 -1.315486997300  1.299044212100
C   -2.622373644600 -0.073485911500  1.112526367300
C   -2.263623623800  0.319587339400 -0.161715486300
S   -1.435119476600  1.876734188700 -0.415160455200
O   -1.709576874500  2.363966372700 -1.744762172300
O   -1.731482781300  2.766868962000  0.687051861400
N    0.158077417500  1.363691384700 -0.376665753400
C    0.749331873200  1.279649921300  0.956981578000
C    2.175573686000  1.778291140400  0.743374776200
C    1.928261339400  2.906584207700 -0.257425181000
C    1.121360489200  2.054806975100 -1.234493958600
C    2.114219702100  1.025937639400 -1.776049605300
P    3.197748549300  0.575714289200 -0.306817018100
C    2.548995075100 -1.052005383000  0.254067544600
C    1.362889959100 -1.649892652700 -0.160645212100
C    1.006390743100 -2.895854452600  0.325493537000
C    1.823611792600 -3.559336187800  1.226245496800
C    3.006767068700 -2.972373262300  1.644117081300
C    3.368335432000 -1.730465117600  1.155063818200
C   -2.473222377500 -0.506428943200 -1.249329757900
C   -3.058276457500 -1.744852082000 -1.056016879500
H   -3.716007110700 -4.220473114100 -0.307933973500
H   -3.888232583200 -3.875689483900  1.422683148100
H   -5.154784860000 -3.403842516100  0.293001436500
H   -3.486789134800 -1.628063459000  2.292979483500
H   -2.449937322900  0.602186569400  1.935471143600
H    0.202991420200  1.941863239100  1.640549313400
H    0.686590232100  0.256513717100  1.334015195700
H    2.677585288900  2.060692405900  1.668290042400
H    2.837249110100  3.309371941200 -0.702287061100
H    1.333575726600  3.714275423700  0.172273289900
H    0.579370956000  2.589347417600 -2.015329688800
H    1.624473306200  0.162536938100 -2.223121820900
H    2.747207440900  1.486982061400 -2.538814829200
H    0.701134984200 -1.140778466100 -0.845493646900
H    0.083236329400 -3.350980022200 -0.002327577700
H    1.539696074600 -4.532418418900  1.599527739500
H    3.649498380600 -3.484886713900  2.345248729500
H    4.296013599000 -1.270747207800  1.469434290900
H   -2.184172932400 -0.158333110400 -2.228542002400
H   -3.228717281100 -2.393755033200 -1.902304774000
