43
-65.59124746
C   -6.608057903600  0.707367345500  0.087682528000
C   -5.161628701800  0.332878452400  0.004037232600
C   -4.443066050400  0.505733404300 -1.174187595600
C   -3.106214448900  0.149865302800 -1.245206417400
C   -2.488154566000 -0.383135675800 -0.132091718000
S   -0.752131596300 -0.789394134900 -0.176708003800
O   -0.513132398500 -2.040285822500  0.497789436800
O   -0.291072093600 -0.690862357000 -1.545539426500
N   -0.154578727300  0.402869324300  0.815375997100
C    0.960437638300  0.110811120600  1.712234725200
C    1.760493827200  1.412679395200  1.716981534500
C    0.635706480500  2.438094853100  1.554510474300
C    0.001469642900  1.768437660600  0.337252073200
C    1.054664234800  1.867242872400 -0.770799988800
P    2.710173501400  1.685360691900  0.103740954300
C    3.213774212100 -0.021813804100 -0.331305912400
C    3.066652648900 -0.524427175100 -1.619122945000
C    3.528705363400 -1.790912730400 -1.930664536400
C    4.166035630500 -2.558435521800 -0.970615717800
C    4.359109841100 -2.046437341600  0.302597059500
C    3.896200505500 -0.782910438000  0.617414430300
C   -3.181319889100 -0.567078394400  1.049963434900
C   -4.515198701400 -0.210341328000  1.113758526500
H   -6.798251898900  1.296611773200  0.982312902700
H   -6.915815788000  1.276796411800 -0.784682760000
H   -7.220531782300 -0.191856855200  0.146983085700
H   -4.930089990700  0.922299090200 -2.043323308000
H   -2.531240901000  0.273062088100 -2.149923619900
H    0.561777060700 -0.111093497000  2.710958351800
H    1.512755477000 -0.764794382400  1.367879991600
H    2.381845270400  1.536291381100  2.603395131100
H    0.990616806700  3.444635640000  1.336525244200
H   -0.036065734000  2.453456330400  2.411672857100
H   -0.973214403700  2.153892826900  0.028535214500
H    0.896463572700  1.098607479400 -1.525263897600
H    1.009337484800  2.848358616800 -1.250787512400
H    2.584005546900  0.066228844400 -2.384383309900
H    3.390002268800 -2.178740268800 -2.929806347500
H    4.520463687600 -3.549012000600 -1.216068687000
H    4.871500538200 -2.634116533600  1.050968346800
H    4.054451535700 -0.380690833700  1.609384493900
H   -2.663797247200 -0.993564637700  1.894442294400
H   -5.065209896000 -0.351488023200  2.032303987800
