43
SIG-NIHDA-498 | MMFF94/ETKDGv3 ensemble | attach_idx=3 axis_idx=4 relative_energy_kcal_mol=0.00000000 boltzmann_weight=0.1111111215
C    4.2761415185  0.4951639837  1.2200821097
N    3.2703997160  0.2057562314  0.1934924196
C    3.9487088595 -0.1059305689 -1.0669575301
P    2.0751139754 -0.9154618776  0.6919477804
O    1.0855597047  0.0398946129  1.5673027943
C    0.4997489925  1.1785807419  1.0829494167
C    1.0920555425  2.4084856826  1.4030869961
C    0.5877179316  3.6093617394  0.8875459318
C   -0.5136608897  3.5971458022  0.0371448281
C   -1.1089987629  2.3776191943 -0.2503217464
C   -0.6518350506  1.1666360394  0.3105941803
C   -1.5851464960  0.0509881881 -0.0827155798
C   -2.1586414733  0.6429128128 -1.4009738963
C   -2.2768182438  2.1523811985 -1.1602565605
C   -2.7214980174 -0.1864776342  0.9476915412
C   -3.3656400086 -1.5276071695  0.5525583532
C   -2.1776671787 -2.2575954886  0.0043586573
C   -2.0534578965 -3.6217358708 -0.2118868571
C   -0.8330821230 -4.1114212884 -0.6794461046
C    0.2494393828 -3.2433749922 -0.8794883337
C    0.1082608668 -1.8722974527 -0.6380773025
C   -1.1259519285 -1.3677227159 -0.2722293494
O    1.2026713722 -1.0540110321 -0.6778996556
H    3.8177164096  0.8096700621  2.1653698577
H    4.9172399349  1.3272447893  0.9052945062
H    4.9191206181 -0.3697602135  1.4262308167
H    3.2428888824 -0.1763955839 -1.9028462629
H    4.5163307985 -1.0431111232 -1.0135360506
H    4.6458711096  0.6961641004 -1.3381558421
H    1.9721551255  2.4302831237  2.0388678877
H    1.0749791298  4.5485987687  1.1345127942
H   -0.8904999367  4.5199600629 -0.3919955990
H   -3.1175717048  0.2105299275 -1.7064783967
H   -1.4559373326  0.4650792677 -2.2291868153
H   -3.2119005895  2.4122163326 -0.6545537073
H   -2.1897022202  2.7103095420 -2.0968624719
H   -3.4634504385  0.6183372823  0.9868725559
H   -2.2972871357 -0.2745441569  1.9591460680
H   -3.7965115360 -2.0291187733  1.4237199105
H   -4.1282758165 -1.3999771227 -0.2217569254
H   -2.8797295100 -4.2973974315 -0.0141794070
H   -0.7092178104 -5.1766972627 -0.8570969025
H    1.2103622291 -3.6426817276 -1.1918681090
