43
SIG-NIHDA-498 | MMFF94/ETKDGv3 ensemble | attach_idx=3 axis_idx=4 relative_energy_kcal_mol=0.00000002 boltzmann_weight=0.1111111175
C    3.3931312185  0.1328473021  2.2176582827
N    3.1732031210  0.0945198532  0.7698470454
C    4.4710321550  0.0737760719  0.0884008785
P    2.0806732034 -1.1024460619  0.2149184999
O    1.5143297352 -0.4111190825 -1.1487119228
C    0.9290236059  0.8258325612 -1.1904667197
C    1.7154076528  1.9102900755 -1.6046312809
C    1.2039530785  3.2143790746 -1.6074539482
C   -0.1011654071  3.4543064590 -1.1885617630
C   -0.8792534886  2.3708438930 -0.8077792300
C   -0.3994434552  1.0452252443 -0.8590100653
C   -1.5189887406  0.0959673725 -0.5184810442
C   -2.4067607735  1.0376584242  0.3430028367
C   -2.2876567801  2.4235193282 -0.3016756574
C   -2.2999627311 -0.3995555533 -1.7650611336
C   -3.1700542237 -1.5693884475 -1.2709868287
C   -2.2917492091 -2.1375507279 -0.1983939115
C   -2.3825219443 -3.3906182526  0.3886762535
C   -1.4237619392 -3.7506290652  1.3367749819
C   -0.3719734428 -2.8776814627  1.6483500506
C   -0.2887603371 -1.6246377479  1.0310814123
C   -1.2904507438 -1.2220173239  0.1672307963
O    0.8185617937 -0.8439417399  1.2134600956
H    2.4604451982  0.3067785060  2.7669322777
H    4.0517682449  0.9679331742  2.4855559893
H    3.8491022280 -0.7911599217  2.5940380293
H    5.0662863781  0.9505914465  0.3700418963
H    4.3620026996  0.1218613083 -1.0017531034
H    5.0529237963 -0.8241079113  0.3317459737
H    2.7460517637  1.7422228688 -1.9026164767
H    1.8382902694  4.0413241558 -1.9146400981
H   -0.4942397328  4.4653781725 -1.1572348067
H   -2.0164511362  1.0848486239  1.3710035185
H   -3.4525673364  0.7211353430  0.4200399287
H   -2.9887329171  2.5477526535 -1.1327530295
H   -2.4365402833  3.2170645018  0.4360395914
H   -1.5957890227 -0.7700388197 -2.5250815321
H   -2.9059098136  0.3743231242 -2.2484794589
H   -4.1168983144 -1.2212401796 -0.8470249826
H   -3.3605490125 -2.2853991275 -2.0754275436
H   -3.1727996539 -4.0819436397  0.1132427557
H   -1.4719515224 -4.7271512524  1.8119563076
H    0.3987458196 -3.1897532208  2.3476386319
