43
SIG-NIHDA-498 | MMFF94/ETKDGv3 ensemble | attach_idx=3 axis_idx=4 relative_energy_kcal_mol=0.00000000 boltzmann_weight=0.1111111209
C    3.9325203150 -1.1287542650 -1.8111901843
N    3.1410931078 -0.6900457108 -0.6577852999
C    4.0346945300 -0.4788495617  0.4836447435
P    2.0631632824  0.5948551901 -1.0062084860
O    1.4302247148  0.8655977862  0.4712627312
C    0.4736480921  1.8373118937  0.5694658053
C    0.8480348861  3.1728998528  0.7541343174
C   -0.1130447934  4.1915772048  0.6908966148
C   -1.4471213609  3.8872902808  0.4163649370
C   -1.8002116299  2.5561158725  0.2539750129
C   -0.8612763734  1.5206616005  0.3979070055
C   -1.5461818641  0.1853827602  0.3115921076
C   -2.7737732185  0.5860057824 -0.5497692738
C   -3.1496031661  2.0091390233 -0.0990770752
C   -2.0012569283 -0.3108142694  1.7129386424
C   -2.3733261582 -1.7866725064  1.5290429098
C   -1.3968767320 -2.1856629804  0.4660910156
C   -1.0352254090 -3.4809703228  0.1259510451
C   -0.0838429987 -3.6592559124 -0.8737755911
C    0.5102045241 -2.5482019950 -1.4860736677
C    0.1578194344 -1.2429836941 -1.1143039192
C   -0.8541313927 -1.0577385327 -0.1845399799
O    0.8270257255 -0.2054453225 -1.7059589374
H    4.6581943425 -0.3695953732 -2.1291344662
H    4.4838007200 -2.0459174443 -1.5716946364
H    3.2997098835 -1.3744722265 -2.6724743139
H    4.6388523169 -1.3748184818  0.6711953728
H    3.4767192784 -0.3017843173  1.4105579067
H    4.7195615430  0.3634227099  0.3258653782
H    1.8923423255  3.4259036784  0.9147891473
H    0.1902600773  5.2271419246  0.8225231017
H   -2.1853630404  4.6776465479  0.3232448688
H   -2.4937432656  0.6070409801 -1.6136730352
H   -3.6233431415 -0.0997305850 -0.4617319864
H   -3.6250163545  2.5665110708 -0.9111153779
H   -3.8011962718  1.9985681391  0.7800035273
H   -1.1666079939 -0.2369139970  2.4265610289
H   -2.8313628463  0.2601759413  2.1427413923
H   -2.2329265949 -2.3485583750  2.4567682837
H   -3.4001786854 -1.9061680391  1.1699821456
H   -1.4764189069 -4.3362528259  0.6275439225
H    0.2190837770 -4.6612047765 -1.1651808162
H    1.2750762499 -2.7024367243 -2.2413559172
