43
SIG-NIHDA-498 | MMFF94/ETKDGv3 ensemble | attach_idx=3 axis_idx=4 relative_energy_kcal_mol=0.00000003 boltzmann_weight=0.1111111164
C    4.3721458888 -0.8642786777 -0.3956700559
N    3.2472462526 -0.3120695292  0.3651385236
C    3.7537870722  0.2855183712  1.6029985104
P    2.2015881324  0.6763480395 -0.5643424390
O    1.2956736361 -0.4445159587 -1.3266737157
C    0.5826803298 -1.4178156637 -0.6795971993
C    1.1441801613 -2.7002265123 -0.6013769134
C    0.5036644105 -3.7277841646  0.1029729144
C   -0.7061001991 -3.4855241417  0.7465127480
C   -1.2664829790 -2.2211193362  0.6389898915
C   -0.6654729840 -1.1939482550 -0.1185123790
C   -1.5808782502  0.0024512411 -0.1515189787
C   -2.3706651015 -0.2367056035  1.1660998596
C   -2.5383722685 -1.7564604665  1.2784462875
C   -2.5418796953  0.0026881624 -1.3704928376
C   -3.1590763899  1.4123243659 -1.4113751478
C   -2.0228532671  2.2305917997 -0.8783422544
C   -1.8538987925  3.6033641434 -0.9784405803
C   -0.6876868923  4.1682945487 -0.4602477891
C    0.3038265718  3.3543666757  0.1052600780
C    0.1213317345  1.9690409578  0.1802926959
C   -1.0740260239  1.4148872630 -0.2389412684
O    1.1504604000  1.1638319117  0.5820975145
H    4.0373644243 -1.3917133528 -1.2969858210
H    5.0860688814 -0.0892630998 -0.7017453124
H    4.9131004704 -1.6064069501  0.2035572358
H    2.9402249914  0.5728074830  2.2793394869
H    4.3580903007 -0.4393503032  2.1618554475
H    4.3753974548  1.1695021291  1.4145010871
H    2.1039090228 -2.8947511508 -1.0707865990
H    0.9673382000 -4.7084261597  0.1656747673
H   -1.1924603642 -4.2672823079  1.3210231394
H   -3.3374981238  0.2763974201  1.2084909527
H   -1.7854673809  0.1246900299  2.0253402192
H   -3.4042068261 -2.1136461602  0.7124312557
H   -2.6186434635 -2.0693839050  2.3233072668
H   -3.3149010755 -0.7722244061 -1.3292140127
H   -1.9722798036 -0.1683433631 -2.2962661463
H   -3.4310204568  1.6934671023 -2.4326932407
H   -4.0311568952  1.4936310266 -0.7553789336
H   -2.6034886811  4.2262796966 -1.4563780440
H   -0.5304660640  5.2419301698 -0.5258716490
H    1.2309036424  3.7988269302  0.4565214351
