43
SIG-NIHDA-498 | MMFF94/ETKDGv3 ensemble | attach_idx=3 axis_idx=4 relative_energy_kcal_mol=0.00000000 boltzmann_weight=0.1111111213
C    3.6396213309  0.3050445325 -1.8444806067
N    3.2322114936  0.3682028067 -0.4387716823
C    4.4138109723  0.6196310223  0.3917510707
P    1.9104676748  1.4015712775 -0.0931686612
O    1.2836568871  0.6870743629  1.2315093847
C    0.8898941527 -0.6233642660  1.2771348588
C    1.7701197123 -1.5535825976  1.8479925222
C    1.4638228921 -2.9203404535  1.8680128141
C    0.2741741161 -3.3783558332  1.3100476686
C   -0.6020604755 -2.4464467608  0.7733283948
C   -0.3369545763 -1.0611604889  0.8017433410
C   -1.5329778178 -0.3133950479  0.2718329172
C   -2.1514481537 -1.4169839884 -0.6318606129
C   -1.9098195029 -2.7394134906  0.1051599791
C   -2.5330294147  0.1049962639  1.3828085477
C   -3.4978305687  1.1030899150  0.7174919988
C   -2.5841388482  1.7567799189 -0.2737405538
C   -2.7854922033  2.9549517906 -0.9422508934
C   -1.7777335101  3.4209336988 -1.7878283960
C   -0.5757725219  2.7109870572 -1.9168294264
C   -0.3857116015  1.5129065855 -1.2193058101
C   -1.4183494494  0.9946829233 -0.4598144741
O    0.8402633996  0.9080117761 -1.2191773611
H    4.4448731142 -0.4271860250 -1.9799377599
H    3.9965173830  1.2726360593 -2.2183139360
H    2.8219502212 -0.0349890174 -2.4907343864
H    5.1649666275 -0.1642361152  0.2375720147
H    4.8809388778  1.5866131808  0.1664725620
H    4.1740418116  0.6001117233  1.4616873553
H    2.7169999255 -1.2143639812  2.2574022664
H    2.1701413273 -3.6246088269  2.2989455175
H    0.0443960162 -4.4388573992  1.2927777273
H   -1.6296576079 -1.4449618333 -1.6005232022
H   -3.2142133182 -1.2712396466 -0.8534931292
H   -1.8420463353 -3.5762246698 -0.5957377774
H   -2.6852670454 -2.9372944074  0.8515877643
H   -3.0731914198 -0.7334558907  1.8355505654
H   -1.9958996273  0.6120080033  2.1983939949
H   -4.3193922138  0.5940607702  0.2042742016
H   -3.8952455831  1.8131117773  1.4482549901
H   -3.6992220061  3.5250457367 -0.8065153968
H   -1.9102775098  4.3574662771 -2.3236014091
H    0.2228633750  3.1105432803 -2.5356469823
