82
-125.29600405
C   -0.423538610500  2.273908935900  0.542724733500
C   -1.420470968800  1.366303798000 -0.185012435800
N   -0.779563173800  0.323407989400 -0.974342955000
P    0.237526155200 -0.943760088700 -0.457956737000
O    0.966536550000 -0.143387067600  0.782361671000
C    2.090865972200 -0.789794836700  1.262718134200
C    3.288949012500 -0.645317350200  0.597341514700
C    1.983758037900 -1.561376704000  2.430529469500
C    3.082520014300 -2.201854872600  2.926147610900
C    4.314781513700 -2.149053361300  2.240763362200
C    4.420951161100 -1.379574040300  1.050918665500
C    5.636870197700 -1.415026087800  0.334372533100
C    6.704703118900 -2.132696386300  0.797260073900
C    6.614350474900 -2.851324479000  1.998910244500
C    5.441391112200 -2.864023912100  2.699772676500
O    1.471387368400 -0.875767984000 -1.587961942600
C    2.461662241700  0.074222482600 -1.624025441800
C    2.595565810600  0.826536172500 -2.805928816400
C    3.567140355300  1.775965895000 -2.921873798600
C    3.351466886400  0.243881086100 -0.579540065100
C    4.309268253300  1.295790458800 -0.648036421300
C    4.425583327800  2.059533206800 -1.839424430400
C    5.390548716600  3.085842996900 -1.911933577000
C    6.190651582300  3.373060211300 -0.842001563600
C    6.043718812700  2.653424176700  0.353241130800
C    5.127972177200  1.642437024700  0.449328112600
C   -1.555116156200 -0.109077757600 -2.151444498700
C   -3.039082912900 -0.231273285600 -1.858977867300
C   -3.899181964900  0.783698242700 -2.201819641700
C   -5.260677899300  0.749612221000 -1.873553742200
C   -5.770792840200 -0.306512914200 -1.179148925000
C   -4.940522824400 -1.389229255200 -0.826022545000
C   -3.563813225600 -1.372831061400 -1.185746077500
C   -2.791292622800 -2.505794684700 -0.851108986000
C   -3.329365775700 -3.566692091400 -0.176830893900
C   -4.678068934400 -3.561007619800  0.203508296900
C   -5.464949803000 -2.494364160100 -0.123675495700
C   -1.242535660200  0.807244905500 -3.338118798200
C   -2.468986720500  0.854574244600  0.787315543700
C   -2.268375522700 -0.327419449600  1.449338863500
C   -3.219293270000 -0.862670043600  2.325412719800
C   -4.396128214400 -0.205288055500  2.534012491800
C   -3.665912554200  1.586339253100  1.028748672000
C   -4.644079766500  1.028400651500  1.898452262500
C   -5.851563484900  1.722703332600  2.124547701100
C   -6.092200814500  2.931045002100  1.536297865100
C   -5.122231685400  3.498387916600  0.698370767300
C   -3.946501988100  2.845197874400  0.452476616400
H   -0.927883409000  3.190593124800  0.842690640900
H    0.404018387300  2.523133062100 -0.118061673800
H   -0.029880993000  1.794822600400  1.433073927300
H   -1.924716532200  1.986963789000 -0.932128634000
H    1.022298693000 -1.621481059400  2.918837201400
H    3.013984636000 -2.781273676600  3.835017278800
H    5.712233259100 -0.874821832600 -0.597089294900
H    7.626307687000 -2.152783436100  0.234110041900
H    7.471460812900 -3.403575543000  2.355400700900
H    5.352079380700 -3.432877860400  3.614279948500
H    1.922158654300  0.614332490400 -3.622232928900
H    3.676089158200  2.336612787000 -3.838880983400
H    5.476589133300  3.647397133800 -2.831440086100
H    6.927420516300  4.160593281800 -0.903738108000
H    6.658713865200  2.906390807400  1.204686235700
H    5.014965971200  1.105889471800  1.379197344200
H   -1.166468884800 -1.100407883200 -2.421735136000
H   -3.537513818700  1.649231320700 -2.733907457900
H   -5.892445637600  1.576710805400 -2.162281889400
H   -6.813111237600 -0.333978670500 -0.896007288900
H   -1.751387596200 -2.548137416200 -1.134923119800
H   -2.711102313500 -4.419530920800  0.063841664700
H   -5.086752028700 -4.403325910800  0.742603107800
H   -6.511350631600 -2.478454129900  0.147193909500
H   -1.380899156000  1.855770525700 -3.087789428300
H   -1.872959522600  0.552155576200 -4.186533823200
H   -0.203550050000  0.670083926500 -3.621689523200
H   -1.359103166900 -0.885571481700  1.277517073500
H   -3.016278884600 -1.802752243400  2.817048525600
H   -5.150524730300 -0.614443214300  3.190736051200
H   -6.584038699100  1.276059883100  2.782497496300
H   -7.019034040800  3.456659222300  1.715148731700
H   -5.309915080600  4.461616825300  0.245530802800
H   -3.218582874400  3.316379580100 -0.189313524700
