82
-125.29589768
C   -2.412454940900 -2.177147056600  2.259396756800
C   -2.449135407300 -1.440320766900  0.914621217400
N   -1.368905123700 -0.464716339400  0.778872475600
P   -0.195636516700 -0.821011370600 -0.368313681200
O    1.007332112300 -1.336232423200  0.693765973300
C    2.231952853500 -1.548295446400  0.111382219900
C    3.052801113200 -0.472935660900 -0.159504319400
C    2.624378350400 -2.864591740900 -0.186389734100
C    3.835893923600 -3.102355974500 -0.765347414700
C    4.677770053800 -2.031349223000 -1.135386754000
C    4.276573669900 -0.697943611300 -0.853831788300
C    5.088086246600  0.357583005100 -1.323448879300
C    6.259660680000  0.105891530200 -1.982383528500
C    6.682047749700 -1.212265549000 -2.208849943400
C    5.900678182700 -2.256840380300 -1.801374568400
O    0.445334042600  0.656408907700 -0.759708852500
C    1.403672202200  1.389774425100 -0.097547965200
C    1.090177794000  2.744735261600  0.138167443100
C    1.965102712700  3.559494200900  0.791802460300
C    2.639965379600  0.882346763300  0.252163198000
C    3.516397603200  1.693167047100  1.034706538000
C    3.178803205400  3.046649047800  1.296032942300
C    4.057398366800  3.845855658000  2.056254281300
C    5.210755230300  3.324684741500  2.572154753300
C    5.521318558500  1.973633905000  2.360547857000
C    4.697556568100  1.178554080500  1.612072647600
C   -1.315079922400  0.692093016100  1.673168559000
C   -2.698471053900  1.255006389500  1.931217208900
C   -3.291514010800  1.174920875800  3.166147302800
C   -4.562269114400  1.715514558900  3.412461044700
C   -5.243051488200  2.355012858200  2.418448325900
C   -4.673345285300  2.479933361400  1.134064422200
C   -3.390651983100  1.920867957000  0.876679740600
C   -2.861551335600  2.062120130400 -0.426385032100
C   -3.545273600700  2.732686631100 -1.403484843500
C   -4.804530634200  3.289755418700 -1.140227566200
C   -5.356974089500  3.157568254500  0.102112400600
C   -0.492973465100  0.431725880200  2.941090584000
C   -2.367026329600 -2.402104470400 -0.252058271200
C   -1.642287280100 -3.565189031400 -0.135287923600
C   -1.543017678000 -4.483258808600 -1.188270835000
C   -2.178280986200 -4.241700817300 -2.371615948600
C   -3.033004360600 -2.124929632300 -1.480235902700
C   -2.934590664600 -3.064663474100 -2.544936521800
C   -3.593862424300 -2.806276705800 -3.765648361900
C   -4.321402235100 -1.664648470400 -3.945828620400
C   -4.415724476400 -0.731700778100 -2.903909357100
C   -3.791483957100 -0.956470217600 -1.708229110000
H   -3.049793862500 -3.057466518900  2.210048413600
H   -2.789674521400 -1.530710733600  3.046676072500
H   -1.398770564200 -2.480154738100  2.507412137000
H   -3.408069206100 -0.906985100200  0.873104075500
H    1.945532151100 -3.665823277700  0.062638261500
H    4.153889977500 -4.113030901300 -0.975533680600
H    4.767224853200  1.376349833100 -1.167643680800
H    6.865663813800  0.926821375100 -2.337226533600
H    7.616509138000 -1.392983275500 -2.719604342700
H    6.201180925400 -3.277085187800 -1.993407289300
H    0.146486362000  3.120874707900 -0.229971271700
H    1.725426373200  4.600167929300  0.953018446700
H    3.791689089500  4.878660848400  2.231621885500
H    5.878789257600  3.941399657700  3.155332505300
H    6.417596448300  1.559076451400  2.798538664900
H    4.941003022900  0.136556931800  1.470262619400
H   -0.765515066500  1.467452935400  1.128873727500
H   -2.781037831400  0.697167872500  3.986998670900
H   -4.990177311600  1.622207537500  4.400206044800
H   -6.220296971200  2.779769319100  2.598525907000
H   -1.909208896200  1.618585118300 -0.670162967800
H   -3.115166177800  2.827253252200 -2.390279408000
H   -5.331726306200  3.815018880500 -1.923555871200
H   -6.330573700700  3.574540022900  0.318806914700
H    0.509473558900  0.126263404300  2.650692760400
H   -0.914226328900 -0.351989344900  3.560862736800
H   -0.418150938600  1.349710114000  3.521222947500
H   -1.128185986000 -3.789624154100  0.785444967600
H   -0.961005793700 -5.383169611700 -1.051097596100
H   -2.111006101600 -4.943226052600 -3.190786844400
H   -3.508245682200 -3.534901056900 -4.559576960800
H   -4.823112129200 -1.473372126000 -4.883316645700
H   -4.987640692300  0.173446194800 -3.048191862700
H   -3.876677299400 -0.212674289300 -0.932861866200
