82
-125.30071823
C   -1.420869890300  0.378525653500  2.899876074600
C   -1.044350543800  0.275612324000  1.413111092400
N   -1.254401365400 -1.060144966200  0.861190726900
P    0.027658581800 -1.934543981600  0.213111171000
O    1.203529934700 -1.438138923900  1.294783525600
C    2.506501231100 -1.668143717300  0.913001844700
C    3.122021975800 -0.815636546800  0.019218551500
C    3.188158523100 -2.759683317500  1.477254003800
C    4.486144327900 -3.004583821800  1.137366264200
C    5.137355787100 -2.208742860700  0.170644243600
C    4.445362687400 -1.115124273200 -0.415457109200
C    5.083469942600 -0.396483738900 -1.449678043500
C    6.355805050700 -0.708140199900 -1.842249741500
C    7.057425450700 -1.753880064000 -1.224466816600
C    6.455243555300 -2.492693891400 -0.245149939800
O    0.512121639800 -1.033257621800 -1.100462752800
C    1.134335648600  0.189166032000 -1.060663697800
C    0.472381153000  1.260469642300 -1.689129458000
C    1.038684847800  2.499632521100 -1.717686198100
C    2.385342031600  0.354982983700 -0.497785811200
C    2.934400501700  1.667699961000 -0.422816952000
C    2.260727452000  2.744117945200 -1.057613045900
C    2.820023911800  4.037149176700 -1.000850266900
C    3.977856773500  4.271823102900 -0.314134715800
C    4.617070416000  3.219853499600  0.358623196500
C    4.110139102900  1.950883193200  0.305940280700
C   -2.472988717500 -1.800064338800  1.169158835700
C   -3.332249236200 -2.115945411400 -0.043927764500
C   -2.761132001200 -2.290688084800 -1.277500482700
C   -3.523862805700 -2.608220476600 -2.409134333200
C   -4.875849957000 -2.758868194900 -2.301607622300
C   -5.513273070100 -2.600578931000 -1.053278190700
C   -4.741867931500 -2.278308808900  0.098930106500
C   -5.428936093200 -2.136039467800  1.326061817300
C   -6.784014841200 -2.301311163000  1.409702912600
C   -7.536997442500 -2.618779975400  0.270658942900
C   -6.910103779600 -2.763355882900 -0.933855288500
C   -2.160852322700 -3.114764492700  1.895320949700
C   -1.707959294200  1.398933607100  0.641024317800
C   -2.837333588200  1.182499057900 -0.104499421900
C   -3.477951945500  2.220824714900 -0.795813356200
C   -2.986453699700  3.491272666200 -0.732694103600
C   -1.162579771500  2.715149407500  0.709939906900
C   -1.822543162500  3.767038944400  0.015590280100
C   -1.303977823200  5.077881154100  0.077869214200
C   -0.173168379800  5.356067454200  0.790745313200
C    0.491642902700  4.322793087000  1.464147796800
C    0.012305521900  3.042959486700  1.423323062500
H   -1.018995079900 -0.472809760200  3.444753396900
H   -2.499072612700  0.420093681400  3.038817113700
H   -1.002054717100  1.290027497900  3.318031765600
H    0.035188385500  0.431509625600  1.343070319200
H    2.657190496500 -3.381379965500  2.182635861100
H    5.022603090300 -3.829281275200  1.583080629100
H    4.548604170400  0.401166164600 -1.942241935700
H    6.826287489600 -0.149508129700 -2.638233515900
H    8.065931116000 -1.978895746900 -1.539107697600
H    6.975095122100 -3.317612794200  0.220915092100
H   -0.484359325200  1.063684460800 -2.148496240200
H    0.539295101200  3.317040379800 -2.215898023200
H    2.301501207900  4.841643187100 -1.502114213400
H    4.398726964800  5.265801853100 -0.271854806500
H    5.515029137300  3.418655321900  0.925578751900
H    4.603910925600  1.150879199700  0.836977182100
H   -3.050904994500 -1.163977308600  1.840644468000
H   -1.694189212300 -2.166787406600 -1.393439209400
H   -3.027773175100 -2.730485346600 -3.360903755300
H   -5.477426703600 -3.003087613200 -3.165536052000
H   -4.883245845000 -1.895937015100  2.225011517200
H   -7.283227070900 -2.187646781800  2.361363921800
H   -8.606458575900 -2.746356229100  0.354280088800
H   -7.475508873200 -3.008503272800 -1.822048795300
H   -1.504920223200 -2.925762328000  2.742266162300
H   -1.664423410200 -3.804294906700  1.216087658700
H   -3.078135561800 -3.579162972700  2.249826332700
H   -3.249605409200  0.190518138300 -0.184305821400
H   -4.364672546500  1.997032657300 -1.371605351200
H   -3.474927284300  4.302589219000 -1.253750423200
H   -1.824669794000  5.861075871500 -0.455693351100
H    0.218109417100  6.362031781800  0.835065807800
H    1.394490474900  4.541536275700  2.015587496700
H    0.563107010300  2.274626637100  1.943000034700
