82
-125.29751863
C   -0.079229104100  1.913307691600 -0.245146986800
C   -1.247052769700  1.023391651300 -0.671481795100
N   -0.859343000400 -0.310914306500 -1.121174257800
P    0.372804723500 -1.383477143700 -0.731518776600
O    0.912850206400 -0.674629042800  0.655410649500
C    2.110632991000 -1.187162314700  1.122652748200
C    3.301507734900 -0.757256554500  0.577209666300
C    2.074811138700 -2.123382488400  2.168658500500
C    3.237186129500 -2.638610124300  2.663879378400
C    4.478546940200 -2.287953188200  2.091906594400
C    4.515843626700 -1.353729777200  1.022297474500
C    5.757684534100 -1.091172742600  0.404316313000
C    6.906077430900 -1.681446299000  0.854446146200
C    6.874608245500 -2.564360030300  1.944166968500
C    5.684020980200 -2.865707973300  2.543354685200
O    1.673364593500 -0.992744695600 -1.733913145600
C    2.490909324500  0.093573828200 -1.595971262800
C    2.535402082100  1.008607753000 -2.666851607400
C    3.335850327300  2.110624651100 -2.603314731300
C    3.282584188100  0.275293236100 -0.477147834000
C    4.047778825700  1.469812035100 -0.356891332600
C    4.086524974000  2.386638295600 -1.440824680900
C    4.860549035900  3.560060816000 -1.325721961500
C    5.544813594900  3.839379080200 -0.176201919400
C    5.467712828000  2.960116021500  0.914124763900
C    4.738654181500  1.806498097700  0.827767895000
C   -1.745953200000 -0.896339722800 -2.135394783000
C   -3.200746184500 -0.762132614400 -1.737690890800
C   -4.034622621100  0.127229736600 -2.367093509200
C   -5.371881024700  0.287683516900 -1.978606261600
C   -5.878927614900 -0.443712329100 -0.945942394000
C   -5.068983175400 -1.382590508800 -0.274749446100
C   -3.716178523800 -1.558189761500 -0.674476959300
C   -2.946596198400 -2.519126634100  0.016601146000
C   -3.478037173800 -3.256841938600  1.037664069400
C   -4.810453427300 -3.073574598300  1.432591350000
C   -5.586121191100 -2.153837221800  0.787076438300
C   -1.408670654200 -0.350513554200 -3.525883784700
C   -2.283472002800  0.967692338600  0.437119939300
C   -2.108274159500  0.079489158100  1.466547829800
C   -3.048978640500 -0.058505115000  2.493091149000
C   -4.186899863700  0.694191699300  2.478995062200
C   -3.427202945300  1.813150341800  0.434849574900
C   -4.399119174300  1.645554263800  1.460764987000
C   -5.561140089300  2.446037318600  1.455723954100
C   -5.759992338400  3.396715240700  0.496293778100
C   -4.790159350400  3.591142922000 -0.496920338400
C   -3.660175125700  2.822242316800 -0.525994082200
H    0.698905456900  1.913835559100 -1.005335002700
H    0.345132736400  1.581503501800  0.697111068900
H   -0.442851344000  2.931350092800 -0.115597157700
H   -1.702546166200  1.492344470600 -1.549262149600
H    1.112212029400 -2.410587248600  2.565008131000
H    3.218499683000 -3.344137104200  3.481350974800
H    5.791395111600 -0.423030929200 -0.442702452300
H    7.846970655400 -1.472385842900  0.366664634200
H    7.792935559600 -3.013023666400  2.293550128700
H    5.643120094200 -3.563034364500  3.367932238000
H    1.925842174600  0.802555672800 -3.534212523000
H    3.382375139200  2.800902586800 -3.433122122100
H    4.892156207500  4.240291621700 -2.165103532100
H    6.134701000100  4.740585172100 -0.094379205400
H    5.986800890700  3.202682172100  1.830033324800
H    4.675888219900  1.144332605600  1.678075296700
H   -1.502155336200 -1.967173707300 -2.169914706500
H   -3.672635818900  0.732640640600 -3.182806890500
H   -5.989247307800  1.003322060200 -2.501426961000
H   -6.904560999900 -0.319360895800 -0.629553844400
H   -1.912984066200 -2.673837376500 -0.256220205100
H   -2.867873123200 -3.987540854000  1.549132561400
H   -5.213734098300 -3.661456416600  2.244436427300
H   -6.615834685500 -2.000530952800  1.078263821900
H   -1.480264023300  0.733498567200 -3.568993474300
H   -2.072710057300 -0.781940782600 -4.270697145100
H   -0.385249124500 -0.632078024100 -3.765183113000
H   -1.229733975800 -0.544952608400  1.475175274900
H   -2.872200343700 -0.775504068900  3.281623967000
H   -4.935935715500  0.581303378000  3.249969360700
H   -6.291674591900  2.293806365400  2.238160518500
H   -6.652047092700  4.006296342000  0.500164950000
H   -4.941172344100  4.358079829900 -1.243399528400
H   -2.928645875700  3.009734564500 -1.296753986200
