82
-125.29845391
C   -0.724150390000 -0.187436555800  3.129138062400
C   -1.067335505100  0.140966768900  1.669784651000
N   -0.953152251000 -1.058344303700  0.828097315900
P    0.462582279800 -1.613263466900  0.138291211000
O    1.495171642500 -1.099915692800  1.337423243300
C    2.808598981800 -1.448253208300  1.101675064800
C    3.565984652800 -0.717498880700  0.211808059400
C    3.336123341500 -2.555841611700  1.786875910100
C    4.624322110700 -2.945007963900  1.568307675200
C    5.411979850100 -2.294404493500  0.593915602300
C    4.875003459200 -1.186067944400 -0.113583484000
C    5.640929545600 -0.629477230000 -1.160463783300
C    6.892549670700 -1.100985382300 -1.446598675500
C    7.445957839100 -2.153373191500 -0.703289199800
C    6.714151967500 -2.742858110200  0.288970038400
O    0.882804922500 -0.472173011700 -1.022429670200
C    1.794928356500  0.542413283300 -1.028015612800
C    1.429342791300  1.654771300000 -1.818117922300
C    2.220796730700  2.759829660900 -1.888521287700
C    3.027490407900  0.510071164300 -0.400266214600
C    3.801780381600  1.711218024100 -0.359150796800
C    3.399801555200  2.840986885600 -1.117415334300
C    4.180985664900  4.013938165300 -1.085862155100
C    5.300361372100  4.090536788300 -0.305216537300
C    5.669294070700  2.996799342600  0.490424852500
C    4.941399011900  1.838831084600  0.464613355600
C   -2.139863960600 -1.901869761900  0.749679237900
C   -3.090742377800 -1.408978044000 -0.325878368400
C   -2.560874933500 -0.998571034100 -1.521870096900
C   -3.364186169700 -0.482330459900 -2.544524792700
C   -4.712506170500 -0.373608945000 -2.361199367500
C   -5.309596820100 -0.824505119600 -1.166576342500
C   -4.498254377200 -1.375571952800 -0.135809693200
C   -5.147588994400 -1.871461287300  1.016406933300
C   -6.505966209300 -1.804510536200  1.154040097800
C   -7.297123531000 -1.229757974100  0.149464042500
C   -6.707315687200 -0.753637186000 -0.986159247900
C   -1.804547704600 -3.369546494700  0.492564804600
C   -2.439648690200  0.775749366100  1.522461206800
C   -3.414485637000  0.547806278500  2.464000644200
C   -4.707985759300  1.071425404500  2.340910399200
C   -5.041431542900  1.829799935600  1.258379758300
C   -2.757925239700  1.596713814000  0.402624215900
C   -4.076787135700  2.113514097000  0.271661600200
C   -4.404538795100  2.913651803100 -0.842814535600
C   -3.471069158400  3.217177876200 -1.791253961500
C   -2.165641693500  2.725689160400 -1.658530213400
C   -1.823345026200  1.934566994100 -0.597718805300
H   -1.279245737200 -1.053571783600  3.481273453600
H   -0.943633436900  0.666115965300  3.766470145400
H    0.334224957100 -0.416718441000  3.207123555700
H   -0.306904475200  0.846443129300  1.315757480600
H    2.696022821300 -3.072146929300  2.486583661900
H    5.045817345100 -3.778013877700  2.111249110800
H    5.221895147400  0.170522459900 -1.751353953900
H    7.460568306400 -0.664549871600 -2.255216938800
H    8.441447622300 -2.503996926900 -0.932941014500
H    7.115633507900 -3.574966359800  0.849640833400
H    0.512797716900  1.580927908300 -2.382650855400
H    1.942775289500  3.595020956900 -2.514410752800
H    3.866487917300  4.857560705600 -1.683916080700
H    5.893927490600  4.992738674300 -0.283029833700
H    6.533747918100  3.074516847300  1.133758136100
H    5.229081929000  1.013151795500  1.097690158600
H   -2.629997582800 -1.835921179600  1.724949176100
H   -1.490909638900 -1.054155282700 -1.668617588900
H   -2.905988033400 -0.160286755500 -3.468406163200
H   -5.343615334800  0.045872242600 -3.131823136600
H   -4.568144314400 -2.329488937800  1.802678360900
H   -6.979452464100 -2.196879000400  2.042750779600
H   -8.368577230000 -1.175637196500  0.277956598100
H   -7.305189519100 -0.320445475300 -1.776048061600
H   -1.417150613000 -3.504896030400 -0.514001999300
H   -2.707924957300 -3.967361673300  0.597037247300
H   -1.060760304600 -3.717493250100  1.207052810500
H   -3.205061210900 -0.053237427400  3.334535980500
H   -5.436754798300  0.857702781900  3.109039234800
H   -6.039726159800  2.226617005400  1.143193080100
H   -5.415861874100  3.286646747700 -0.925553727500
H   -3.727490776000  3.834234216700 -2.640336006100
H   -1.429019207500  2.980069297600 -2.406955682900
H   -0.816038200300  1.562159171300 -0.523447850200
