82
-125.29497875
C   -0.929464870500  1.633902564500  2.492050231900
C   -1.701012117500  1.158563656500  1.258128621900
N   -0.803959231600  0.874023791200  0.133446648700
P    0.123278582400 -0.564725797700  0.117625007500
O    1.186878159800 -0.047234819100  1.291729650200
C    2.308820297500 -0.837437951700  1.403682690700
C    3.346009736800 -0.663852199400  0.511547360300
C    2.375062901200 -1.796117797900  2.428145180600
C    3.478789175900 -2.589347115000  2.550445445300
C    4.533551984400 -2.502084633700  1.617433710000
C    4.463510741700 -1.543405794000  0.570855229600
C    5.486013910400 -1.538280634000 -0.402926891200
C    6.544423571300 -2.399497351300 -0.315899282800
C    6.637629970500 -3.310883382700  0.746687661300
C    5.648052216700 -3.364559120300  1.687429554400
O    1.078383689400 -0.358505129800 -1.220205228000
C    2.155059965600  0.494889963900 -1.332588719400
C    2.137296537400  1.405575462100 -2.406178531900
C    3.172678198300  2.271965840100 -2.599630326800
C    3.253152269900  0.408603402100 -0.499168857400
C    4.291923056500  1.376299023600 -0.626112423100
C    4.254198227500  2.309488981600 -1.695333925000
C    5.293866460500  3.253862805200 -1.826390573900
C    6.316856953800  3.300325154000 -0.921547010200
C    6.331921827800  2.410263868700  0.162670226000
C    5.346919011400  1.472767981500  0.307556119900
C   -1.208816584000  1.450901321900 -1.152618067300
C   -2.696196502800  1.347366390100 -1.444202542800
C   -3.482096986000  2.469047679100 -1.547791062800
C   -4.854676146500  2.391841258400 -1.823908902900
C   -5.461740586600  1.178674454000 -1.958488437500
C   -4.705140618300 -0.005952702500 -1.855798477100
C   -3.301987676900  0.071335966500 -1.634553603700
C   -2.575882807600 -1.138033094700 -1.627126677100
C   -3.199208500500 -2.347704774100 -1.755516243200
C   -4.589251496100 -2.418901778400 -1.918252781400
C   -5.321001438200 -1.267901028100 -1.983020202600
C   -0.664665443900  2.883148018500 -1.216003598300
C   -2.604566051300 -0.011685797700  1.591549114600
C   -2.030131001000 -1.194167545900  1.986420199400
C   -2.778751894900 -2.364786312100  2.159286863700
C   -4.125655206300 -2.347014738600  1.943659357700
C   -4.022680208300  0.060057105300  1.486818948100
C   -4.779211014600 -1.137111454300  1.633851729000
C   -6.182821776600 -1.095110306000  1.500809207200
C   -6.835972127600  0.084438091100  1.287098073300
C   -6.103016777200  1.275860479800  1.207691688300
C   -4.739091343900  1.261999065700  1.297286698100
H   -0.340237680900  0.833428497400  2.925642655300
H   -1.633676321800  1.992930953500  3.240581124100
H   -0.256102439600  2.442085519500  2.216392064700
H   -2.312155667000  1.998000777000  0.921159923500
H    1.541689427500 -1.879557328600  3.110152615200
H    3.544682196400 -3.315247880300  3.347561721900
H    5.417970358600 -0.850174747500 -1.231748610600
H    7.315651099600 -2.384471944800 -1.072182675100
H    7.486478261800 -3.976223532600  0.805617028600
H    5.695830378100 -4.078626396300  2.497236632400
H    1.293161403900  1.386000191000 -3.078869577800
H    3.161829542300  2.956751409900 -3.434831138000
H    5.257171066600  3.948131418300 -2.653845030800
H    7.109007282000  4.027181050600 -1.026206292400
H    7.128032352400  2.472553035700  0.890263297700
H    5.361759539900  0.803112149100  1.154073808100
H   -0.695666750500  0.875878261600 -1.931475122700
H   -3.055877626300  3.451061898200 -1.419101101600
H   -5.423829567600  3.306050992200 -1.911718779700
H   -6.522839597000  1.104684421400 -2.147726971500
H   -1.500820470200 -1.117351080400 -1.528309903600
H   -2.615961475500 -3.256746509700 -1.737177544300
H   -5.068989905700 -3.382653236700 -2.007648640500
H   -6.390640518400 -1.302944100400 -2.134613865900
H   -1.095106207100  3.503899426900 -0.433919437900
H   -0.865641975000  3.330055959500 -2.186703711500
H    0.411815081700  2.854075170400 -1.061866174500
H   -0.968626102300 -1.231661008100  2.177553442000
H   -2.276230402400 -3.276518926000  2.447463064200
H   -4.715107666800 -3.247840934500  2.037495012600
H   -6.733815486700 -2.020755511100  1.591663894300
H   -7.912114281500  0.110287287400  1.195198413700
H   -6.624264021300  2.212867581400  1.075536330200
H   -4.210577134800  2.200774725900  1.243990860000
