82
-125.29426201
C   -0.170398753600  2.037065423900  0.337852813700
C   -1.213635815300  1.570146045300 -0.680647296200
N   -1.061035693000  0.191792845000 -1.154422443400
P    0.297880721300 -0.802615977100 -1.204665258500
O    0.814635783300 -0.599115234700  0.351889823000
C    2.002497141100 -1.255409479000  0.618624073400
C    3.203691334100 -0.708314156400  0.219046209600
C    1.944149468500 -2.477341036300  1.309288102700
C    3.089895351700 -3.163882372400  1.585251525000
C    4.336179297100 -2.694016155400  1.118556674300
C    4.397353529500 -1.465056623200  0.409133877200
C    5.638681082800 -1.066586765500 -0.132344709900
C    6.766183096700 -1.814719837500  0.065784961200
C    6.713787645600 -2.999754077100  0.814273900200
C    5.520889834800 -3.432650724900  1.321313837000
O    1.520666641500  0.035325479200 -2.001627303200
C    2.430607577000  0.917515267400 -1.494016038800
C    2.554818467300  2.145055057000 -2.177976356300
C    3.440422606600  3.089586698300 -1.754546916500
C    3.236947420700  0.626630500400 -0.408593977000
C    4.087929748300  1.648565550400  0.107386726600
C    4.203657431200  2.882368539100 -0.585699122900
C    5.064596592400  3.880469311000 -0.084443772200
C    5.760955820300  3.688703821900  1.075729105900
C    5.605933795900  2.493145934800  1.792293750800
C    4.791150771200  1.500106669100  1.322895706800
C   -2.017160503300 -0.234729507600 -2.191026355800
C   -3.414995949500 -0.443402534200 -1.642305573400
C   -4.464222547300  0.358927321000 -2.014059740400
C   -5.756015942300  0.169538460400 -1.505768409400
C   -6.006821429200 -0.839700220700 -0.623598567400
C   -4.973643891900 -1.716844808500 -0.237539139300
C   -3.661642886000 -1.529856072600 -0.753472490200
C   -2.667867460900 -2.454092925300 -0.363037729700
C   -2.950175380100 -3.492449782400  0.480071717400
C   -4.241811559200 -3.660874119400  0.998019951800
C   -5.229288413800 -2.786607200300  0.645608004200
C   -1.951933271700  0.641976139100 -3.443420535100
C   -2.586462266700  1.834517360400 -0.092230860100
C   -3.291357895100  2.912359524000 -0.568842699500
C   -4.548143698500  3.259856906200 -0.058371411800
C   -5.104889172800  2.517480608600  0.942000812300
C   -3.127137903800  1.071411274300  0.978029659300
C   -4.410594373500  1.416880388200  1.484136686800
C   -4.967647047000  0.658247182800  2.535087454000
C   -4.285820537100 -0.388620798500  3.085768757500
C   -3.014823602000 -0.723362696100  2.599461535100
C   -2.455552252700 -0.020423581000  1.569365997200
H    0.833373311700  1.983897606300 -0.073006480300
H   -0.210092143600  1.459226104300  1.255113650900
H   -0.381192189000  3.078398001200  0.579357984000
H   -1.099874376300  2.237975484300 -1.549488845000
H    0.975468976000 -2.840482770600  1.617409535800
H    3.053482899600 -4.092057916400  2.136137040400
H    5.689381794900 -0.163941789900 -0.721927078100
H    7.706226636200 -1.495991848100 -0.360387038000
H    7.616290760000 -3.572017822900  0.971261565300
H    5.461513170000 -4.357566987700  1.877044609100
H    1.932523090200  2.301874065000 -3.046485188500
H    3.546956582700  4.020007722500 -2.292803390300
H    5.152729028300  4.806988148800 -0.633948575800
H    6.418354487500  4.457494025900  1.454556346800
H    6.132778945900  2.361028291200  2.726129288200
H    4.669339627300  0.591924578600  1.893246253000
H   -1.658530251000 -1.223541545900 -2.511320566300
H   -4.312567383500  1.172717314000 -2.704044159600
H   -6.546189604600  0.835938742300 -1.819488680200
H   -6.996964926200 -0.989455084100 -0.217475218500
H   -1.658939266700 -2.340386626900 -0.732085945300
H   -2.174148514400 -4.192866923500  0.753704716300
H   -4.446654448600 -4.481777966000  1.670044744400
H   -6.231628368500 -2.903091171500  1.033446287100
H   -2.292173256400  1.656656730200 -3.259759777800
H   -2.565343752600  0.203243673000 -4.226509562300
H   -0.919694477100  0.677313473800 -3.788701882900
H   -2.873601741800  3.514656768900 -1.365030941800
H   -5.069153624300  4.113079409900 -0.468495867900
H   -6.078860640500  2.765496063500  1.339512138800
H   -5.949117574800  0.928436749000  2.899547397800
H   -4.717754888700 -0.962657000700  3.892977884200
H   -2.479513276800 -1.551837041100  3.040538632900
H   -1.488624820600 -0.309251881500  1.194832482400
