82
-125.29282716
C   -2.130469636300 -1.286617145600 -2.959282445600
C   -2.465955949700 -0.780024442700 -1.558911350200
N   -1.297814964800 -0.461867635100 -0.726912175600
P    0.210909635300 -0.720656510100 -1.406684231700
O    0.968888882900 -1.476514763400 -0.128686043700
C    2.297529810600 -1.756327208900 -0.377620394500
C    3.250441156600 -0.766594836800 -0.256750213500
C    2.642136896200 -3.068571693800 -0.744335651400
C    3.942033589600 -3.389486514600 -1.002484212700
C    4.942810798000 -2.394462065500 -0.980349496700
C    4.595193337600 -1.062841235800 -0.629476369200
C    5.591468235700 -0.066820648300 -0.720690474100
C    6.872950602300 -0.382490315200 -1.079120927400
C    7.227503255000 -1.708653082000 -1.366422899300
C    6.277869948000 -2.690581142700 -1.326794126700
O    1.019661497700  0.744054900600 -1.324244955400
C    1.824238452800  1.266961989900 -0.355306826400
C    1.568185140600  2.610889616500 -0.008025303000
C    2.312327256700  3.236992279900  0.945820424300
C    2.870677111500  0.574712420800  0.223617768600
C    3.576553528500  1.180258802300  1.306213160500
C    3.306494731400  2.529374085600  1.655071926400
C    4.023301940700  3.128563540600  2.711159551300
C    4.945515238200  2.417054939200  3.426293793500
C    5.173121049300  1.067369046600  3.121703064300
C    4.507525399300  0.464539803700  2.089991029500
C   -1.735454715800 -0.135202062900  0.634517173400
C   -2.398494697600 -1.326426401800  1.303978032300
C   -1.791571372400 -2.553966105300  1.214423018200
C   -2.346246552700 -3.697564953900  1.801857174400
C   -3.524903215800 -3.608311845200  2.484992393700
C   -4.181416265400 -2.367110604600  2.617427576400
C   -3.614936507900 -1.199059425700  2.031017135800
C   -4.302246333600  0.022683127600  2.212075255700
C   -5.476843881200  0.084485296400  2.909093053100
C   -6.035493585100 -1.071419714800  3.472936298300
C   -5.396205588600 -2.269399985800  3.329701666700
C   -0.644620524500  0.403248012900  1.554532621200
C   -3.457109980500  0.369729388900 -1.643446207900
C   -4.753137696500  0.117967543600 -1.261887203400
C   -5.752265900600  1.097313938500 -1.332087047800
C   -5.449070020400  2.348344296800 -1.785793943100
C   -3.117527174200  1.665338873300 -2.122563375400
C   -4.134343688600  2.660623261600 -2.189159590300
C   -3.812741099000  3.951297474400 -2.661659848900
C   -2.542570855600  4.261488100600 -3.056256901700
C   -1.537381049600  3.285782262700 -2.989915723800
C   -1.816637903500  2.026440320800 -2.536508664300
H   -1.581858601400 -0.550359662600 -3.538860333700
H   -3.063174689400 -1.507317067800 -3.475884187500
H   -1.542317790900 -2.199707940300 -2.898924265900
H   -2.996916666000 -1.601557688900 -1.051760155500
H    1.853809568200 -3.804049970500 -0.805686257200
H    4.216074955600 -4.401958046900 -1.259930199100
H    5.328673890900  0.959825619100 -0.516484667400
H    7.620252687700  0.394593103400 -1.147536129000
H    8.247342833400 -1.942469862900 -1.634673787800
H    6.530746623700 -3.711886190100 -1.573663512500
H    0.771521937500  3.119907419600 -0.530839678900
H    2.127433269900  4.272313326100  1.192472943500
H    3.817102777700  4.161966507300  2.951583852000
H    5.489301154200  2.881264851100  4.235996294100
H    5.877305582700  0.500145621300  3.712948069800
H    4.681811223300 -0.579353020500  1.877276639600
H   -2.476001126800  0.664585959500  0.508220764100
H   -0.865430170900 -2.639585147200  0.667691383300
H   -1.835642037800 -4.644954939900  1.704724048000
H   -3.971030011400 -4.482626030300  2.937634359200
H   -3.899904781800  0.933753539800  1.797016493900
H   -5.981969259000  1.032181438400  3.029121121600
H   -6.965358184900 -1.005035831500  4.018922448000
H   -5.810139086600 -3.168951081000  3.763743062500
H    0.128979254300 -0.338761579700  1.727069287700
H   -1.095081107000  0.656467250900  2.513224103900
H   -0.197308682800  1.301588966900  1.138482189700
H   -5.016528623400 -0.863024164000 -0.890340491400
H   -6.756065572800  0.850388893600 -1.018726076600
H   -6.207365069300  3.116256608500 -1.843905037900
H   -4.598535852900  4.692667247400 -2.705104476300
H   -2.305073223900  5.251671808900 -3.417991274900
H   -0.532602672700  3.534151056100 -3.301449566600
H   -1.022615583000  1.300816546200 -2.481489263000
