82
-125.29851050
C   -1.437728116500 -1.684015506000  3.203777372300
C   -1.203089406000 -0.690764976800  2.060377105800
N   -0.943573727100 -1.353920001200  0.772572841400
P    0.535450178700 -2.222222950400  0.645489507300
O    1.407911939300 -1.114129784600  1.511927323800
C    2.778231543000 -1.236816421500  1.383381268000
C    3.402334779700 -0.695064962800  0.280960818000
C    3.502013649700 -1.876135891500  2.402125354100
C    4.859525939000 -1.980837580700  2.308752604800
C    5.540422263500 -1.504484578200  1.168371962100
C    4.806953035600 -0.872052581900  0.128543244200
C    5.497754140100 -0.487311755400 -1.041056809600
C    6.848050355500 -0.671407991100 -1.152923269000
C    7.578885071300 -1.249590879600 -0.104267343300
C    6.935331480200 -1.664049027500  1.027663264500
O    1.070546797000 -1.853304889600 -0.886430304400
C    1.507670315200 -0.621314161300 -1.310403135900
C    0.857317040900 -0.055847440600 -2.423743314400
C    1.227925403200  1.169369430500 -2.894381740800
C    2.595148982000  0.008511109000 -0.735836824000
C    2.923465738000  1.331540281600 -1.147547826900
C    2.231870894200  1.914733622500 -2.241940441300
C    2.565076476400  3.223339723600 -2.650189072600
C    3.519910342200  3.942928385500 -1.987857500400
C    4.174815554600  3.383929477900 -0.880103404200
C    3.886531967900  2.111297497700 -0.470679986900
C   -2.131728481600 -2.005347717800  0.209998665100
C   -2.989717743000 -1.009821482400 -0.550410193500
C   -2.382082929300 -0.012046613700 -1.265692391100
C   -3.117305476600  0.933364385400 -1.989821970900
C   -4.480299776900  0.878044252700 -1.993820734300
C   -5.154233567100 -0.141427922700 -1.290363510000
C   -4.408403355900 -1.115367501400 -0.568692353600
C   -5.130984700100 -2.136822982700  0.087712882800
C   -6.497361291400 -2.181441141600  0.054767476700
C   -7.226204738000 -1.206501552400 -0.640414221400
C   -6.563425297400 -0.211787899600 -1.300804692700
C   -1.787433680100 -3.162138721600 -0.729633015400
C   -2.289547870800  0.349541891300  1.897420217500
C   -3.558943172900  0.146156398000  2.374456082800
C   -4.566979822100  1.108493431800  2.220459834300
C   -4.301679674900  2.285373041600  1.585449602200
C   -1.986391962700  1.573756504000  1.233739837700
C   -3.011125112300  2.546384116000  1.079730763400
C   -2.725093748400  3.757929487800  0.416062582200
C   -1.479363936900  4.009639870100 -0.084481406900
C   -0.465164024000  3.052884361500  0.060596348100
C   -0.712388781900  1.869774138200  0.699882426500
H   -2.278691914700 -2.349118544900  3.025716959600
H   -1.611156957000 -1.143134906000  4.131115537800
H   -0.543568242500 -2.296267817400  3.315686228900
H   -0.287167082800 -0.154331796000  2.317245982700
H    2.959024992600 -2.266774612100  3.249681873100
H    5.426759722500 -2.454387866200  3.096394577800
H    4.944033059400 -0.053619949600 -1.859628285900
H    7.359695284400 -0.374585868700 -2.056821912200
H    8.646643751600 -1.377267307900 -0.205457518900
H    7.483204011000 -2.132930410700  1.832527157500
H    0.079626030600 -0.629921069300 -2.904662067900
H    0.738664254900  1.592275610700 -3.759457851200
H    2.037348246500  3.649842324400 -3.491505141700
H    3.766781121000  4.946334146100 -2.302725827700
H    4.908742599200  3.969417383100 -0.345690673500
H    4.386352514100  1.695576534900  0.391329592500
H   -2.725567381200 -2.413204873200  1.034396652400
H   -1.307304562100  0.065528247900 -1.244748851100
H   -2.594272680500  1.708989873000 -2.529526013700
H   -5.064059195900  1.608722919100 -2.535707996400
H   -4.602453266500 -2.910974980600  0.622381722600
H   -7.024576822700 -2.974618094100  0.565806395000
H   -8.305584623600 -1.253024740800 -0.653220258800
H   -7.110495207500  0.542025105000 -1.849897535500
H   -2.702969075500 -3.543129835800 -1.178960839600
H   -1.300545050000 -3.971464950300 -0.188234676300
H   -1.127097920000 -2.825056380200 -1.523631238000
H   -3.813280766000 -0.771280201700  2.881232083800
H   -5.554545093500  0.901701103100  2.606937384100
H   -5.072557496500  3.031903238200  1.456934385700
H   -3.518553526900  4.484558305100  0.308997348400
H   -1.267549195900  4.939126703000 -0.593309258300
H    0.517656718900  3.252372235300 -0.341553840200
H    0.084736586200  1.147980540900  0.779446717300
