82
-125.29827865
C   -1.423950171600 -1.835061923000  3.176420066700
C   -1.251574103600 -0.748609008500  2.109386570200
N   -0.924065292000 -1.306049598200  0.784633605700
P    0.570476622600 -2.160182871600  0.730482483800
O    1.402521740700 -0.968292653400  1.527650807400
C    2.776176342000 -1.093808637800  1.447145764100
C    3.429971695400 -0.654031421400  0.316434575800
C    3.473183762900 -1.639998909000  2.536544365500
C    4.832080566600 -1.755932872500  2.486511086700
C    5.542091811500 -1.389069339500  1.323667858700
C    4.836461689800 -0.851190467300  0.213795011400
C    5.555679184800 -0.580463496000 -0.970596184600
C    6.906756900200 -0.780937449800 -1.034286698500
C    7.610160146200 -1.262473946600  0.079931045600
C    6.938693539000 -1.567400503200  1.230322928000
O    1.116177371600 -1.890261435100 -0.810922171200
C    1.566365089500 -0.692334208900 -1.314250264600
C    0.933090030800 -0.205186018800 -2.473486037000
C    1.329807277200  0.971571964300 -3.037516241000
C    2.652814929400 -0.031784806900 -0.774041542800
C    3.008493804200  1.248058388100 -1.288629378300
C    2.343077949500  1.748641861900 -2.438691680400
C    2.708024792600  3.010446128900 -2.953068460300
C    3.667876390800  3.766467174200 -2.340715797100
C    4.294082605400  3.293986467300 -1.177579163100
C    3.974735720900  2.067112810700 -0.664629026400
C   -2.081292914800 -1.933509678100  0.137050859400
C   -2.883902747700 -0.898703993900 -0.631998492800
C   -2.222911090400  0.118316524000 -1.269511611800
C   -2.903166017100  1.106347703200 -1.990100244000
C   -4.264834183200  1.076120344800 -2.067859217900
C   -4.991178262900  0.038898257200 -1.447613948500
C   -4.300448013400 -0.978428718400 -0.731095635200
C   -5.072197125800 -2.015632292400 -0.161340102000
C   -6.434867416000 -2.037318378200 -0.272589701300
C   -7.110387010500 -1.020592484600 -0.961900252700
C   -6.398512574500 -0.007804225600 -1.538175305600
C   -1.703540210000 -3.067950311700 -0.815902430700
C   -2.420405498100  0.205346171100  1.993198614000
C   -3.672439743900 -0.137507391400  2.436492251000
C   -4.762833406600  0.735200892200  2.315339038900
C   -4.599388483300  1.962384117500  1.744524189400
C   -2.221137742700  1.489280228100  1.408326476000
C   -3.330465054700  2.368824398100  1.282630723000
C   -3.147853403300  3.637973155200  0.694587034400
C   -1.920706846100  4.036302053500  0.246946565700
C   -0.822104704900  3.174070229300  0.369670105900
C   -0.968806636200  1.935823825700  0.930957931400
H   -1.689403563000 -1.383010933500  4.129207857000
H   -0.475942222300 -2.360398217800  3.288893169400
H   -2.181198218300 -2.568840551300  2.911157578400
H   -0.383090037400 -0.160662354500  2.415296284300
H    2.908338073300 -1.951232947300  3.402573506500
H    5.377969323700 -2.157002825900  3.327678411400
H    5.023084407200 -0.222392068300 -1.838292761100
H    7.440272290900 -0.572186188000 -1.950092389000
H    8.679051758600 -1.403718381200  0.015506652200
H    7.465251538400 -1.962562477700  2.087295529500
H    0.143878879400 -0.797811791100 -2.911171624100
H    0.853681668700  1.332100690300 -3.937503380400
H    2.201633492500  3.371930837500 -3.836836768800
H    3.940454287500  4.733349467800 -2.737936358300
H    5.031191958700  3.909973577500 -0.683251431800
H    4.453237831900  1.719633852800  0.238641268000
H   -2.722574768800 -2.358763618800  0.916551404500
H   -1.149329455100  0.175270471400 -1.189894905200
H   -2.339651351800  1.894721594800 -2.466941223600
H   -4.807153048800  1.840186364600 -2.606784144800
H   -4.584239075400 -2.819863519800  0.367439205200
H   -7.000726400900 -2.843719525400  0.172125612000
H   -8.187880828300 -1.049262340400 -1.036716678600
H   -6.903794199200  0.778655749000 -2.081552343000
H   -1.186282919500 -3.864569772900 -0.282768276100
H   -1.058070434100 -2.705010633800 -1.609832313700
H   -2.608501004000 -3.474338930400 -1.264344483000
H   -3.848499956600 -1.099765300100  2.890915569000
H   -5.731916428900  0.419128134300  2.673384358500
H   -5.434915903800  2.639399561800  1.636930677400
H   -4.005022557200  4.290906548800  0.605722592700
H   -1.787928921200  5.010407324700 -0.201641534100
H    0.146947898700  3.495810154500  0.015304274800
H   -0.109285427800  1.288012102100  0.997251868100
