82
-125.29545585
C   -0.326914849800  1.651431118900  0.177926226500
C   -1.461732199200  0.641509505500  0.309603425800
N   -1.068506936500 -0.769554221600  0.225006047600
P    0.403380915200 -1.548273287800  0.114118905400
O    1.241642257500 -0.636981754400  1.225693385500
C    2.560040303500 -1.026424023000  1.351406792300
C    3.494888236200 -0.623690360700  0.420731067900
C    2.912911698500 -1.833191994600  2.446781620000
C    4.201704480200 -2.249579599300  2.604931807700
C    5.177725894900 -1.941151210300  1.633090824300
C    4.821011104500 -1.140964085900  0.515219359900
C    5.786022317100 -0.936847561600 -0.494736136100
C    7.049813907300 -1.445684715500 -0.375243924600
C    7.416873463500 -2.185824810500  0.758077406900
C    6.495140476300 -2.435031440800  1.735763362300
O    1.167732352400 -0.992057166000 -1.277352347200
C    2.019660296000  0.055505398400 -1.464083400500
C    1.755847983300  0.863000937000 -2.592013373000
C    2.541536469500  1.937775323000 -2.879621632100
C    3.114515857200  0.306560237500 -0.658314225400
C    3.871216646200  1.496005498800 -0.881429302400
C    3.593291763800  2.305808731000 -2.013571589900
C    4.360220420800  3.466976685200 -2.240811285100
C    5.341395289300  3.842402043600 -1.366531478800
C    5.579950638200  3.076312324200 -0.216560571200
C    4.865018074400  1.934634134700  0.020583310400
C   -2.266737164100 -1.605986327100  0.111648028500
C   -2.894956936000 -1.459060970500 -1.261883638300
C   -2.080942580200 -1.618800134300 -2.354895269400
C   -2.565618328000 -1.486843590500 -3.661593864300
C   -3.882069939500 -1.189381020300 -3.870946779000
C   -4.761445612100 -1.025894612100 -2.780615871600
C   -4.274322835200 -1.168727310300 -1.449387798600
C   -5.199731858900 -1.012718145600 -0.392376402900
C   -6.514246614900 -0.725008540200 -0.632572130600
C   -6.985114762300 -0.574575311600 -1.944826067300
C   -6.123887281000 -0.724243599700 -2.993751771900
C   -2.012784933600 -3.080794118000  0.404209943100
C   -2.185277584000  0.890074116300  1.621310411900
C   -1.588291720200  0.447579507200  2.775784436000
C   -2.183895853900  0.628256946000  4.029609806600
C   -3.392155682300  1.257761911300  4.124424414800
C   -3.435278653200  1.564873264900  1.690868192800
C   -4.041356046600  1.738514803300  2.968447660200
C   -5.288532828200  2.392873370100  3.062966901000
C   -5.921820893700  2.867948535000  1.950486779200
C   -5.326560733400  2.707889852300  0.691042764700
C   -4.120785935300  2.076371590300  0.565583596600
H    0.395249009900  1.539972753500  0.980847916300
H   -0.750086220600  2.653584977500  0.233048804500
H    0.178782874400  1.546905142500 -0.777692371400
H   -2.147009309600  0.809416009500 -0.531749493200
H    2.139603084300 -2.101289748300  3.151165752000
H    4.483551651800 -2.849128006500  3.457904292300
H    5.512237398500 -0.381391807200 -1.378701182800
H    7.772979322900 -1.282436007000 -1.160989840400
H    8.423129966100 -2.569297416500  0.842401006600
H    6.756142302700 -3.027738479000  2.600940811000
H    0.918274920100  0.591671550900 -3.218034937300
H    2.347794868700  2.538651402700 -3.756179197300
H    4.145657128100  4.061760407200 -3.117435834100
H    5.924113740000  4.734203598900 -1.545232050100
H    6.332497355500  3.396817508900  0.489230430300
H    5.049384784200  1.364246994600  0.918290036900
H   -2.957170308200 -1.236124901000  0.877172152000
H   -1.033205009900 -1.838692102800 -2.199496064000
H   -1.890697718400 -1.620071478400 -4.494876007900
H   -4.271429646900 -1.077869660000 -4.873046948700
H   -4.873869481300 -1.122367777200  0.630240295800
H   -7.199284081100 -0.609814253300  0.194913955000
H   -8.026600962700 -0.344335311800 -2.116191379700
H   -6.472488491800 -0.616763518300 -4.011482187500
H   -1.417276940300 -3.540867224600 -0.379887466300
H   -2.968735137500 -3.598167484000  0.461684764900
H   -1.493351800200 -3.189598838600  1.354058108600
H   -0.638891594900 -0.061998032600  2.707783596200
H   -1.681648357300  0.263674221400  4.914131331500
H   -3.868805405300  1.399822598300  5.084076032300
H   -5.732424380900  2.512043234000  4.041575416600
H   -6.876200393400  3.367707984700  2.031301363400
H   -5.829492333600  3.086258291900 -0.187249273200
H   -3.692307559600  1.972959949100 -0.419310172900
