82
-125.29579535
C   -0.333432303300  1.813673571300  2.529888082400
C   -1.201735738600  1.611839137800  1.282846440100
N   -1.351600162200  0.198314672500  0.945519549400
P   -0.341216753900 -0.639243950400 -0.108396494600
O    0.845482512000 -1.041844964300  1.015432492100
C    1.951527051200 -1.630679210100  0.452549960800
C    2.909203556300 -0.838052180800 -0.145000789100
C    2.075822635200 -3.029699142300  0.491273540400
C    3.158348444100 -3.634549117100 -0.076511234200
C    4.128335415400 -2.874097089500 -0.764850587300
C    3.996619258700 -1.460631304400 -0.822381035900
C    4.923303353200 -0.733171166200 -1.600377653900
C    5.954186161600 -1.364038932100 -2.240183099100
C    6.113387172800 -2.753867518300 -2.138219219800
C    5.213069817500 -3.491677724400 -1.422106047400
O    0.481387801900  0.556971315100 -0.909251843800
C    1.604168113000  1.247866685100 -0.510862897000
C    1.544061179000  2.651130098700 -0.636093306800
C    2.598320810400  3.431048397700 -0.265188187600
C    2.767784674300  0.629658397800 -0.095442343000
C    3.836048915900  1.437495333500  0.396908724800
C    3.751959572400  2.851024724200  0.302645896000
C    4.817382936800  3.641920818900  0.780432868900
C    5.912664533900  3.066164351000  1.360775479400
C    5.976977545500  1.672088276700  1.499945356500
C    4.966945982800  0.878106431700  1.030782847200
C   -2.501834078600 -0.555776174500  1.438698244000
C   -2.459206280500 -1.935501700900  0.815378251200
C   -1.755417638800 -2.942113910100  1.435025311300
C   -1.705560601100 -4.239987440000  0.910809992300
C   -2.370909585200 -4.540692847400 -0.241896999600
C   -3.105660701300 -3.545675531000 -0.918925229300
C   -3.152287532000 -2.222509514300 -0.396436855800
C   -3.880550277500 -1.257346283100 -1.124678486200
C   -4.532393677200 -1.579289868100 -2.283147693800
C   -4.495829831900 -2.887835113300 -2.784089090100
C   -3.792977727600 -3.847858906200 -2.113648780900
C   -2.534683845200 -0.634373964900  2.970184062700
C   -2.538337008100  2.324016498700  1.316776187100
C   -3.063462828800  2.822231557700  2.482424731500
C   -4.297159892900  3.489588309900  2.510879457200
C   -5.009707020700  3.669185469700  1.361769284500
C   -3.258083183200  2.513319631700  0.099738408900
C   -4.506252956600  3.195455602800  0.132062567100
C   -5.220603587000  3.396996221300 -1.068067428100
C   -4.728413342000  2.954956001700 -2.263297249200
C   -3.499345023500  2.281784836600 -2.302281283400
C   -2.787767545600  2.061982856900 -1.154499832600
H    0.623779663700  1.322355441900  2.366156293400
H   -0.780150943900  1.387698612000  3.421696256700
H   -0.153633816300  2.875355885500  2.687573054900
H   -0.638499624400  2.061681853800  0.458787090300
H    1.295505724200 -3.594562800700  0.977470936500
H    3.270708952300 -4.708040952700 -0.034230108600
H    4.803277374700  0.335142991600 -1.697657825100
H    6.651289074600 -0.791153615600 -2.834283254800
H    6.939810233100 -3.234522651100 -2.640985281400
H    5.309536165900 -4.566159880100 -1.357090047400
H    0.648135818500  3.088966891200 -1.052445337000
H    2.550088734400  4.503939349000 -0.379357083400
H    4.742812587700  4.716075714700  0.687456928200
H    6.724489412500  3.677313796300  1.727060023300
H    6.831158610600  1.225198655400  1.987501256700
H    5.021792130700 -0.192399023500  1.158028573500
H   -3.426128401300 -0.047985988700  1.131236927400
H   -1.221776541400 -2.741033226300  2.350048912000
H   -1.141267759300 -4.999470904400  1.433176711300
H   -2.344169499300 -5.539454828100 -0.653581311000
H   -3.917686222100 -0.237456978800 -0.776500168300
H   -5.080982186400 -0.818675051800 -2.819421007200
H   -5.019603993400 -3.126331960700 -3.698341007700
H   -3.748189648200 -4.860337986500 -2.489664167000
H   -1.552391846900 -0.870601250100  3.369220351600
H   -3.240504194000 -1.403095573900  3.277952295000
H   -2.863864865600  0.314952640300  3.383091826700
H   -2.526275787500  2.717175969100  3.411559547500
H   -4.672589402900  3.859399349400  3.454143661000
H   -5.961134810700  4.181570050300  1.372234510500
H   -6.168081811000  3.915440678200 -1.020879386700
H   -5.278684703800  3.117591120600 -3.178777867700
H   -3.113997230100  1.927469000400 -3.247523118300
H   -1.856468678400  1.520698373400 -1.218030056400
