82
-125.29457863
C   -3.207893218000 -1.466485706400 -2.301187440900
C   -3.391020360500 -0.499542476500 -1.131689238600
N   -2.141213932700 -0.167374135300 -0.446228853400
P   -0.708886923900 -0.586195534900 -1.211926341600
O    0.023251404700 -1.396053899200  0.041717497300
C    1.287506515600 -1.854855557200 -0.239852099300
C    2.357807846000 -0.984983556600 -0.241774957200
C    1.451752336600 -3.224763608700 -0.509619529100
C    2.685184493600 -3.721607130600 -0.810161212100
C    3.793962736700 -2.856292558400 -0.933556122800
C    3.630231155300 -1.470091199100 -0.670620350700
C    4.727655187300 -0.613727421800 -0.906039800200
C    5.934076676900 -1.108973006500 -1.318376278100
C    6.109549226700 -2.485780980400 -1.518165014400
C    5.056486576100 -3.338094163200 -1.338010620500
O    0.214508188000  0.803229799000 -1.192375887100
C    1.199837943700  1.228232418700 -0.351282466500
C    1.209090750900  2.618840547800 -0.106344493500
C    2.125059409200  3.177987281400  0.731692010900
C    2.186956500500  0.417449180400  0.177357888400
C    3.065839370900  0.969417747800  1.158820031700
C    3.042425256700  2.362424932900  1.427785727600
C    3.923135830900  2.900104717400  2.388538363200
C    4.771873499600  2.092110162400  3.092210081300
C    4.758425388600  0.707802891800  2.869820408700
C    3.930561555800  0.161199323400  1.928039706700
C   -2.325809810700  0.472871849200  0.862827685100
C   -1.315964913800  0.001585311000  1.892868627500
C   -0.347314336600  0.841616073700  2.379673198100
C    0.589821069500  0.418613248400  3.333808329800
C    0.561313155500 -0.859233570800  3.806369552200
C   -0.423835428800 -1.761104813200  3.352314103900
C   -1.385749232400 -1.331692346600  2.397405843000
C   -2.354233233900 -2.270203905500  1.982065668400
C   -2.367563542100 -3.549769153200  2.465231585800
C   -1.409830772300 -3.968935762400  3.398281403200
C   -0.461388547200 -3.087123631800  3.832446881000
C   -2.387824786100  1.996814591500  0.722468810900
C   -4.221393943000  0.693914598300 -1.574923379000
C   -5.513921328500  0.768182213700 -1.113280045700
C   -6.388709878400  1.790465635700 -1.504359555300
C   -5.964333009200  2.753546399400 -2.372753849000
C   -3.754810499100  1.691815425100 -2.476400265800
C   -4.646465223900  2.728895340300 -2.874425824000
C   -4.199073267300  3.724629702100 -3.768991650700
C   -2.922721130200  3.714132930000 -4.254926474400
C   -2.037428902500  2.701975097500 -3.857299369000
C   -2.442648495000  1.721158900800 -2.995392881000
H   -2.691281870200 -1.003479055900 -3.135827363400
H   -4.190715736300 -1.787639909600 -2.642806234600
H   -2.646822075300 -2.340339599800 -1.975025658900
H   -4.012433940200 -1.035297312600 -0.395044601000
H    0.578583225000 -3.857921590800 -0.459190939600
H    2.822564469600 -4.777387110600 -0.992070906600
H    4.602752940300  0.449929208800 -0.772197169500
H    6.759703924500 -0.435861539000 -1.498221811500
H    7.072566870000 -2.861842214300 -1.831100414400
H    5.168913345300 -4.398003705600 -1.516876474700
H    0.475973774100  3.223430735800 -0.620737886300
H    2.137418260300  4.245546553600  0.896959151100
H    3.900834543600  3.965876798700  2.568047781900
H    5.440722463500  2.509026196900  3.831020576500
H    5.404733172200  0.069223966400  3.454474594800
H    3.917221559300 -0.908310253500  1.783433690700
H   -3.314679982700  0.155202745900  1.227094666400
H   -0.273411270300  1.857400555700  2.027898116100
H    1.338208200200  1.117609338700  3.677915449200
H    1.288955978200 -1.200070426000  4.529540347900
H   -3.099993344200 -1.983008189000  1.259534563500
H   -3.119969346600 -4.247879415100  2.125736517900
H   -1.429237318400 -4.984176899200  3.768006090800
H    0.283687277400 -3.392124839400  4.554473232100
H   -1.494372084200  2.378704626300  0.239644875300
H   -2.500904061800  2.459372062700  1.700382216400
H   -3.243900240400  2.269976301200  0.110622559500
H   -5.879938151000  0.015236248700 -0.427939528600
H   -7.395552939700  1.803672505100 -1.113144817400
H   -6.626834266600  3.546987199600 -2.688042129200
H   -4.892163500000  4.501587084100 -4.060310586200
H   -2.588064132000  4.480847354600 -4.938800251300
H   -1.024744328400  2.700267799500 -4.234253015700
H   -1.734598346300  0.967095510300 -2.691610392700
