82
-125.29540861
C   -1.891866158200 -1.741267118600 -2.507952296400
C   -2.213198209400 -0.688518073400 -1.450083832800
N   -1.101305422600 -0.474736610600 -0.518336349000
P    0.430187221100 -0.764634805100 -1.148260388200
O    1.088756173200 -1.436598222300  0.225756533400
C    2.407821386200 -1.799316403400  0.053084552800
C    3.401800224900 -0.842958109200  0.087855738500
C    2.701254768000 -3.156247142400 -0.166230120900
C    3.989036867900 -3.555976874600 -0.368911328700
C    5.030207716900 -2.605495683400 -0.440649382600
C    4.736276255400 -1.231450346000 -0.233735453500
C    5.774128681100 -0.291832711800 -0.415038412100
C    7.043528322700 -0.695038138000 -0.725566367800
C    7.343888761900 -2.057182583800 -0.871416938800
C    6.353899770900 -2.990123712500 -0.740235262400
O    1.240610526600  0.703303923300 -1.128303398500
C    2.066622338200  1.246462437000 -0.187870462600
C    1.865912885300  2.620912880600  0.064487157900
C    2.630890459600  3.281493822500  0.976678293200
C    3.080039439900  0.551185079600  0.446688287400
C    3.806292807800  1.204338647300  1.488838853600
C    3.594296774200  2.585618843200  1.738038034600
C    4.334057906900  3.229731431700  2.750983013200
C    5.224072252500  2.534300947900  3.520484989000
C    5.391828791600  1.157110732800  3.317602163700
C    4.702023418000  0.508954169900  2.330246250400
C   -1.440965400200  0.453280235000  0.568761901700
C   -2.844376621700  0.229734156400  1.098055739600
C   -3.702462955700  1.299520389800  1.134489134100
C   -4.987653351200  1.197419987500  1.684139718200
C   -5.414864143400  0.011216144700  2.205814606400
C   -4.575353257400 -1.122337700200  2.183003066000
C   -3.273493478600 -1.024371770600  1.618055752400
C   -2.478230491500 -2.192454505900  1.578014891800
C   -2.932416344600 -3.376314948300  2.089658302600
C   -4.207538082800 -3.462750641200  2.667604100000
C   -5.011165523200 -2.358891698900  2.706128164800
C   -0.488343665200  0.405468213600  1.766757632700
C   -2.653446363600  0.596375720600 -2.124152351100
C   -1.688485209700  1.405748819700 -2.667087485100
C   -2.004141416700  2.620615358700 -3.287339234600
C   -3.306224350900  3.024373191700 -3.365120751600
C   -4.020368239000  0.977575633800 -2.216453351500
C   -4.337683541200  2.217529599100 -2.841447466400
C   -5.685893295600  2.625226976600 -2.934351849900
C   -6.693399588300  1.844440012600 -2.445168430600
C   -6.388878199600  0.615186456000 -1.843153048100
C   -5.092857642800  0.195195678800 -1.731893148900
H   -1.447648925000 -2.616233327500 -2.037317874000
H   -1.205673354200 -1.353850166000 -3.256599880900
H   -2.813740830300 -2.036262277100 -3.005582217600
H   -3.033766368600 -1.081886814000 -0.845807230000
H    1.881464326800 -3.858951836900 -0.160807427000
H    4.223162255800 -4.600445734200 -0.512828744300
H    5.553071757400  0.760346419700 -0.319407561400
H    7.823268083700  0.039445823500 -0.865337112400
H    8.354620223300 -2.359074555300 -1.103760462500
H    6.565424707900 -4.040996177000 -0.877587766300
H    1.090826378300  3.123683785400 -0.494782511900
H    2.486797604900  4.337834436000  1.150005417100
H    4.171537487300  4.285815028500  2.913649748200
H    5.786696480700  3.033208731100  4.295891932400
H    6.068768408400  0.604485077600  3.952780460400
H    4.829610905600 -0.554648707200  2.198909852000
H   -1.407748284500  1.480643683200  0.166509611600
H   -3.384467994000  2.251525680200  0.731725296700
H   -5.629617354000  2.066082440500  1.688798225400
H   -6.400882731500 -0.080703408200  2.638542242800
H   -1.505052948100 -2.150350892300  1.116242960300
H   -2.307930830700 -4.257396696100  2.048013885800
H   -4.549022148600 -4.405163895400  3.071115821700
H   -6.001287290200 -2.414235743900  3.136749525600
H   -0.424661773900 -0.593906088100  2.184709766700
H   -0.870439692000  1.078823831600  2.533254783800
H    0.509333792600  0.735975351600  1.497721536700
H   -0.651366662000  1.103625327100 -2.604570669600
H   -1.210834352500  3.229669400600 -3.696568052700
H   -3.567480040200  3.962895269500 -3.833334483000
H   -5.904241862000  3.572445561500 -3.407658411600
H   -7.722972798900  2.162776374900 -2.520983115100
H   -7.189241582700 -0.003290681100 -1.463384851200
H   -4.897348488100 -0.757516916500 -1.265079589000
