82
-125.29259653
C   -3.327680123100 -1.806043233000 -1.451764989500
C   -2.795362199100 -0.414173582900 -1.114207049500
N   -1.645474097500 -0.513329301900 -0.190349381800
P   -0.293431376000 -1.086906932400 -1.015246684600
O    0.574708999300 -1.587284627500  0.300549289900
C    1.900193857000 -1.880587249100  0.049840572700
C    2.829445527300 -0.865189667500 -0.051338807700
C    2.274050765900 -3.230246055400 -0.061296708800
C    3.577839951700 -3.564367601800 -0.284601725500
C    4.553319234000 -2.561917683700 -0.470347891700
C    4.176086791200 -1.195528896400 -0.376178234200
C    5.148374230100 -0.211195906900 -0.657809781600
C    6.435013978200 -0.559843766900 -0.962384278800
C    6.818080124600 -1.908813604200 -1.003176853200
C    5.893018498500 -2.887303948400 -0.770385796300
O    0.633899639900  0.242192481900 -1.451214941800
C    1.332210071400  1.028432071300 -0.578567588700
C    0.944272812500  2.378278277800 -0.474916555600
C    1.600101157900  3.219794176900  0.373597032600
C    2.400251143400  0.533908727800  0.147712703100
C    3.034972561600  1.379454589500  1.102252063200
C    2.639404240000  2.740534014800  1.200014228300
C    3.279455330300  3.578968828600  2.136404425400
C    4.248312052100  3.092270993800  2.968391252600
C    4.604306794000  1.736817018000  2.908550980400
C    4.013249486800  0.901522538900  2.001451101300
C   -1.812486291000  0.232967850900  1.059909554300
C   -3.091253433800 -0.180471414800  1.768567340100
C   -3.973669211900  0.803117315700  2.143875363400
C   -5.156918887500  0.513747676200  2.836376174400
C   -5.457315712400 -0.777378275100  3.160924295400
C   -4.577219744000 -1.823118100400  2.813339815200
C   -3.374782351500 -1.532099405500  2.109335675900
C   -2.517771299000 -2.609914227200  1.790826933900
C   -2.827941863800 -3.892167266100  2.149845668900
C   -4.014564755000 -4.174426894900  2.842551642100
C   -4.869973090300 -3.159173938100  3.162789223500
C   -0.668724267400  0.145285150500  2.071797907200
C   -2.382658802800  0.393647025500 -2.330320390700
C   -1.870257824600 -0.239399189500 -3.437635315900
C   -1.328211986400  0.472472349700 -4.514999282800
C   -1.275058031900  1.835280546000 -4.479685853100
C   -2.417787416100  1.818232232700 -2.310721965900
C   -1.822764230600  2.537181618700 -3.387285109100
C   -1.791278552500  3.948276839200 -3.352082617800
C   -2.348837737100  4.642660016600 -2.316793366000
C   -2.991691733000  3.944820829000 -1.284681265900
C   -3.027009966600  2.577422540600 -1.285702838400
H   -3.793444842900 -2.237578202700 -0.569160275500
H   -2.519291450500 -2.464362176000 -1.759596894800
H   -4.067798189600 -1.742635389900 -2.245966680200
H   -3.595193525200  0.108180386800 -0.583997735400
H    1.505188308600 -3.981077966400  0.043786276900
H    3.874152044700 -4.600923056900 -0.349803342600
H    4.861170466000  0.829206622000 -0.641565995700
H    7.164939349700  0.206743251700 -1.178182957800
H    7.841576417800 -2.165728550600 -1.233767919200
H    6.169625578500 -3.930676987100 -0.823064525200
H    0.119773030100  2.712412333000 -1.087137494900
H    1.311758914300  4.258598623300  0.443107373000
H    2.978012796100  4.615606709800  2.188287629300
H    4.733087606700  3.740454949600  3.683670382800
H    5.348856320900  1.352189744500  3.590266895600
H    4.284939331200 -0.142750817900  1.974276341400
H   -1.904076124200  1.301609577100  0.801844278500
H   -3.752166244300  1.836021279200  1.909536893700
H   -5.822647491400  1.320589589300  3.106720728800
H   -6.366574899700 -1.017122763400  3.693597244900
H   -1.610452492800 -2.415987086300  1.244280407700
H   -2.156238261000 -4.700255388200  1.897528141500
H   -4.244975366600 -5.193857790900  3.116852544400
H   -5.789192632100 -3.361259843300  3.694884821900
H   -0.494805909700 -0.873948153200  2.400131003500
H   -0.946229939600  0.744166022300  2.938822785000
H    0.251261245500  0.550717676800  1.662071769700
H   -1.870707390800 -1.315685060700 -3.493218252400
H   -0.931912047600 -0.072136141600 -5.359482906100
H   -0.822811526800  2.396302811700 -5.285221084600
H   -1.317165378500  4.470213107400 -4.171660026800
H   -2.316901569200  5.722311532100 -2.295233349800
H   -3.468183855600  4.496809295000 -0.486840162100
H   -3.558756616900  2.074649912200 -0.493548972400
