82
-125.29629218
C   -0.637133694800  2.019132077000  1.690759845400
C   -1.501438087800  1.423944484900  0.576157219500
N   -0.722515282100  0.695136359500 -0.424161989400
P    0.156600360400 -0.741733859000 -0.097378372900
O    1.100803992000 -0.065923045000  1.077918463500
C    2.224502158300 -0.800869810500  1.390775465500
C    3.339463194000 -0.697174831800  0.586851127400
C    2.214277656800 -1.616019218600  2.534056433600
C    3.325846171700 -2.333965111600  2.868471537100
C    4.470421308600 -2.312920831900  2.043679985300
C    4.476430509700 -1.503589547900  0.875518773700
C    5.597369567900 -1.570365844100  0.019541048500
C    6.673947098600 -2.353948210100  0.330242345500
C    6.687356671700 -3.113290385000  1.509905633300
C    5.604041703000 -3.098224786600  2.342550346000
O    1.243378618800 -0.758619307500 -1.357138469300
C    2.297976920300  0.111715101100 -1.511742225700
C    2.358679847300  0.837311144800 -2.716081684700
C    3.369072891100  1.725730641700 -2.940863905200
C    3.307484526400  0.215042638800 -0.574314329700
C    4.310881866700  1.210611314800 -0.749843434400
C    4.342362756300  1.969598903500 -1.949462837000
C    5.344187480500  2.947628992800 -2.121748852400
C    6.262006530600  3.192017044000 -1.139121852300
C    6.206250472500  2.473675163300  0.064659716200
C    5.257321662400  1.507655648300  0.255141767500
C   -1.329093768200  0.720192619700 -1.766884787500
C   -2.821508041600  0.445268808700 -1.740938285200
C   -3.731437119800  1.463174560100 -1.887947942600
C   -5.111558912000  1.251074891200 -1.767832093400
C   -5.590592973900  0.011726078800 -1.464684724100
C   -4.704768507800 -1.077253487900 -1.336713721400
C   -3.307648705600 -0.876285356700 -1.516249902600
C   -2.476607455600 -2.015830510300 -1.474578356800
C   -2.978232939100 -3.259227530900 -1.205366182900
C   -4.347646594600 -3.439876859700 -0.969998219200
C   -5.191543572500 -2.369272825500 -1.049485326400
C   -0.953740868800  2.036760517800 -2.456566369500
C   -2.649332360500  0.642520140600  1.187219377700
C   -2.439388259200 -0.642863030400  1.612647010500
C   -3.470803868900 -1.436586662100  2.126572318800
C   -4.733384761800 -0.928930330000  2.222945819600
C   -3.937663153600  1.223312326800  1.360458377600
C   -4.991691441200  0.408511740300  1.860110937700
C   -6.284417764800  0.955038706000  2.006521234400
C   -6.536646495700  2.262719398700  1.706293576300
C   -5.493837480000  3.081838633700  1.252353116400
C   -4.235228659900  2.575872691300  1.081863534900
H   -1.217324272300  2.767381909500  2.228103446700
H    0.247765350600  2.488077953900  1.267111693200
H   -0.324767460700  1.256682621800  2.397003078300
H   -1.918234178000  2.265023307800  0.017384549900
H    1.316096737200 -1.649374514900  3.132933483800
H    3.332680877400 -2.949134613500  3.756237452700
H    5.592655763700 -1.000368478100 -0.896987176500
H    7.521950432300 -2.394935163100 -0.337717443300
H    7.550932347800 -3.717988810400  1.745040246000
H    5.592003281800 -3.697415980600  3.241865434400
H    1.598954624700  0.649544523600 -3.459996669400
H    3.421134642600  2.269274054000 -3.872999960000
H    5.362855627200  3.508450038800 -3.045480345100
H    7.024646546300  3.944637506600 -1.276221676400
H    6.918079166600  2.692240358900  0.847376996200
H    5.214762281500  0.970609868400  1.190731495200
H   -0.843453618600 -0.078071330400 -2.339347271400
H   -3.400702805000  2.468397271600 -2.093728739100
H   -5.784451064900  2.086589278900 -1.892917259100
H   -6.649114058800 -0.157588225300 -1.330301702500
H   -1.420271962900 -1.918354328600 -1.674825753600
H   -2.315046219700 -4.111688604500 -1.179496788300
H   -4.727509362200 -4.426146680800 -0.746182630100
H   -6.254919993300 -2.493831202800 -0.900118068200
H   -1.324248263400  2.903830579800 -1.916744493900
H   -1.349503245100  2.053179019600 -3.469420348100
H    0.129406430100  2.117938846200 -2.495423372900
H   -1.449547499100 -1.070961578000  1.534767562300
H   -3.256945583800 -2.450649609400  2.430507667900
H   -5.547409863100 -1.535063591000  2.593943068100
H   -7.072983386800  0.313689818300  2.374894433200
H   -7.528353212300  2.674654674300  1.824958425100
H   -5.690971737200  4.122573445400  1.037647362100
H   -3.454335992500  3.239816049700  0.745209510000
