82
-125.29260435
C   -0.343021409400  1.686295358700  1.368194660800
C   -1.639755214400  1.035065354300  0.884503597100
N   -1.585252498500 -0.399044329900  0.588194685900
P   -0.324925487500 -1.448409155400  0.204895651700
O    0.803542360500 -0.835125563000  1.247343467100
C    2.093286637600 -1.279511449000  1.034502388100
C    2.862648549500 -0.724194892500  0.032361216800
C    2.602387456100 -2.277834827700  1.881738897500
C    3.879287289100 -2.729844072800  1.718655198200
C    4.680441010200 -2.249519918700  0.661077767400
C    4.163544756100 -1.251613904600 -0.207943058800
C    4.947155590400 -0.854698302100 -1.313351727700
C    6.194074885800 -1.378018249900 -1.516212861200
C    6.723552899000 -2.325316997100 -0.627198757000
C    5.977282552900 -2.756457451100  0.433270226200
O    0.343428481000 -0.924779081800 -1.242672314800
C    1.081471507100  0.214291686200 -1.400485801300
C    0.560137727200  1.206948435900 -2.252760478800
C    1.247514323900  2.365471938200 -2.461700829300
C    2.308790268500  0.375111302300 -0.783579116100
C    2.992253326900  1.617153945000 -0.921754282900
C    2.461852565600  2.612584993400 -1.785587688200
C    3.149611299100  3.835219177400 -1.932754254700
C    4.296551525600  4.084913143600 -1.232765189700
C    4.793537512000  3.123836151700 -0.340051807700
C    4.158723841600  1.922405333100 -0.186785608300
C   -2.873197226700 -0.979509008700  0.152575113700
C   -2.764866380300 -1.378889305200 -1.307085257000
C   -2.373983638600 -2.652030663600 -1.647413968900
C   -2.107036142100 -3.017019370600 -2.972851351100
C   -2.208654569400 -2.094093764600 -3.972445853800
C   -2.643384071200 -0.784642360700 -3.685604371800
C   -2.961926133700 -0.422447409500 -2.345041328700
C   -3.474763510400  0.877374275300 -2.131682447200
C   -3.598363854300  1.779148701800 -3.152750026000
C   -3.223048948700  1.433917069600 -4.458701610800
C   -2.770603564800  0.171505634600 -4.716587162700
C   -3.277954257100 -2.127889692600  1.075708339800
C   -2.722313764400  1.334260397100  1.907676158100
C   -3.652246178100  2.299477838200  1.606612211200
C   -4.661075441800  2.664909937800  2.507794489500
C   -4.736971449100  2.057454675600  3.727573452400
C   -2.771601227000  0.697801623900  3.178868807000
C   -3.798060565500  1.070244092100  4.092028996300
C   -3.858504553500  0.448916417300  5.358214227900
C   -2.944159315900 -0.497854134800  5.722404087500
C   -1.929745821600 -0.866570782400  4.826509873500
C   -1.846625082800 -0.288491383900  3.590315518400
H   -0.547314346600  2.742098097100  1.544101168400
H    0.437162784300  1.613911484000  0.616504717800
H    0.011429621600  1.246316187200  2.294311487700
H   -1.908397613600  1.559216632900 -0.048233454600
H    1.958857212500 -2.661684863000  2.659215128500
H    4.282535268700 -3.482357795700  2.380178370900
H    4.544204424500 -0.136001215400 -2.010683840700
H    6.777956474500 -1.065345538000 -2.369636772200
H    7.714905924200 -2.719496593600 -0.796228431700
H    6.364046710000 -3.503721324300  1.111442409800
H   -0.390253368000  1.012874009000 -2.727467780500
H    0.855012797400  3.120620322400 -3.127121778200
H    2.742305130100  4.576261288800 -2.605912222900
H    4.817192054500  5.024013618600 -1.350341607900
H    5.683280385500  3.340481894600  0.233056911600
H    4.542376362700  1.195959306600  0.513350175000
H   -3.634724221600 -0.203688271700  0.262342681500
H   -2.256964516000 -3.403584746300 -0.883909283100
H   -1.796751863100 -4.029160196800 -3.187621237300
H   -1.966705660900 -2.350457656100 -4.994157446600
H   -3.804277558800  1.165730525900 -1.146104206800
H   -3.994534568400  2.765601981700 -2.957152527300
H   -3.312751303200  2.161345131900 -5.252408414400
H   -2.504372578500 -0.122046130700 -5.722494149400
H   -2.454115679800 -2.824744690200  1.207817869700
H   -4.137595404600 -2.653625690300  0.666881956300
H   -3.540078479800 -1.730035910400  2.052985635200
H   -3.607136259400  2.803730098800  0.650209360500
H   -5.372929623000  3.426793771400  2.224770255000
H   -5.510329252600  2.326503767200  4.432918006000
H   -4.646711558600  0.742751375600  6.037440631100
H   -2.996275627800 -0.966365744200  6.694722719500
H   -1.210516782800 -1.617863463300  5.119982682300
H   -1.071417223100 -0.598082444100  2.910063755100
