82
-125.29580069
C   -1.532517936900  3.073082936900  1.153826297000
C   -1.537745384600  2.016275446000  0.045130514100
N   -0.839421273900  0.791440800800  0.481533047300
P    0.117562918800  0.177869349200 -0.803756142300
O    0.934085459600 -0.927992258900  0.106837404200
C    2.111656943800 -1.372975837300 -0.459283525900
C    3.247345559900 -0.598897037000 -0.349065461700
C    2.129942698400 -2.619124459400 -1.105678619200
C    3.290681192500 -3.085892804400 -1.651760531600
C    4.463601746000 -2.302102389900 -1.625985765800
C    4.442998518300 -1.033254449500 -0.986326527600
C    5.602600736000 -0.230167991800 -1.049841544500
C    6.735700419700 -0.679623061000 -1.669106623300
C    6.770076068700 -1.953063675000 -2.257282100200
C    5.654568261300 -2.742099226800 -2.241794914100
O    1.280540237900  1.365081183600 -0.915812329900
C    2.214262045300  1.609408388200  0.064568778600
C    2.201775482300  2.877988132800  0.671144278800
C    3.103056564200  3.187526406500  1.647094081000
C    3.173439329600  0.673171305000  0.398422755300
C    4.061394296500  0.948445784900  1.476556925500
C    4.030401242100  2.225144471500  2.098164447000
C    4.922261917100  2.499365434200  3.156329241000
C    5.790718339000  1.545373401200  3.606986177000
C    5.791175763600  0.268781172400  3.024959429900
C    4.949523804000 -0.023321940900  1.987648990900
C   -1.585111535300 -0.014396399100  1.442860278000
C   -2.642407550500 -0.939679872500  0.869300257800
C   -2.451178627000 -1.552203555300 -0.339395028000
C   -3.407546744600 -2.404460122400 -0.905138140300
C   -4.572802882400 -2.653774728700 -0.242258257000
C   -4.810266564100 -2.073579901500  1.021044040300
C   -3.835994975400 -1.212957533100  1.599389187800
C   -4.115230961000 -0.679845346200  2.877791020600
C   -5.280120095600 -0.965866012200  3.535030036400
C   -6.240482685700 -1.804386162100  2.952908624900
C   -6.004708195600 -2.345451197300  1.721426352300
C   -0.665787351400 -0.811661370700  2.376529757200
C   -2.912783244300  1.710349588300 -0.513837236100
C   -4.018636991900  1.730750211800  0.299984295200
C   -5.281085494000  1.320666891300 -0.147405567600
C   -5.439107755700  0.867246549300 -1.422885372700
C   -3.070474313300  1.314480159700 -1.875221227900
C   -4.347378309500  0.862835673900 -2.314704063900
C   -4.515052503800  0.424249703000 -3.645113217700
C   -3.476635967400  0.445266005600 -4.531592435700
C   -2.229797153000  0.935511270000 -4.121370163700
C   -2.035375984300  1.360419880400 -2.835659097400
H   -2.092571317300  2.773020394800  2.034174562400
H   -1.963073061400  3.995763613600  0.771210024100
H   -0.507257262400  3.258704277200  1.463821765600
H   -0.917586462800  2.428781987700 -0.756959939700
H    1.212790194500 -3.188059848700 -1.147290103900
H    3.317905170000 -4.051765960600 -2.134415522500
H    5.582218528100  0.755438413200 -0.610141488700
H    7.613111233000 -0.050909049000 -1.711744225700
H    7.677334147200 -2.296394799700 -2.732388439000
H    5.661550211600 -3.715406617300 -2.711440433800
H    1.473959846900  3.597294914200  0.326836091500
H    3.102126188800  4.167830199200  2.101202276100
H    4.896554850500  3.479906228200  3.610297776400
H    6.469891971700  1.761708622700  4.418640580700
H    6.460934901300 -0.488536105300  3.405792613100
H    4.948796714600 -1.012949993200  1.556355974800
H   -2.091689588500  0.727200759800  2.064992737600
H   -1.540811870000 -1.367758314700 -0.893212665500
H   -3.211303097900 -2.850930466000 -1.869054739100
H   -5.326109691800 -3.300895250400 -0.668400140900
H   -3.396577612800 -0.037809359600  3.362958527200
H   -5.465402663200 -0.544840437300  4.513070891000
H   -7.156911265300 -2.018529478000  3.483467629000
H   -6.731846992100 -2.999219994400  1.260324166600
H    0.166840478700 -0.189605760200  2.696976815700
H   -0.274201094200 -1.695097974300  1.882935455100
H   -1.229843098600 -1.131026259300  3.250634943000
H   -3.938245116400  2.056108407700  1.324784339000
H   -6.116521608900  1.349069193400  0.536616648100
H   -6.399177118900  0.515642003300 -1.772514186400
H   -5.491593188900  0.074141032100 -3.949118516600
H   -3.611316339700  0.105510622900 -5.548216079300
H   -1.416178059400  0.983740699400 -4.830500056200
H   -1.065471688300  1.753078092800 -2.571953538100
