82
-125.29847500
C   -0.789903536700 -0.546914864400  3.209090550500
C   -1.045579657700 -0.078630928000  1.770149280100
N   -0.946233856200 -1.208517716600  0.833693560600
P    0.489231951700 -1.823503327500  0.227381464200
O    1.488867751600 -1.146979616200  1.361405886600
C    2.821934635100 -1.445710627500  1.149302619100
C    3.546686202400 -0.730454361700  0.220826256900
C    3.403082376700 -2.477473889000  1.904969667100
C    4.715199132700 -2.801716684000  1.723455994400
C    5.479333267300 -2.160834189000  0.724536223800
C    4.887730713000 -1.132132779800 -0.056005598700
C    5.637515683000 -0.587316833100 -1.120657030400
C    6.921595269200 -0.993449341600 -1.358764974700
C    7.524759111000 -1.965324145300 -0.547382289900
C    6.812616057900 -2.542615446900  0.466087984500
O    0.932607978900 -0.842951316900 -1.073741990200
C    1.714078348400  0.272891665800 -1.135649933600
C    1.247059742200  1.292102821700 -1.993144838100
C    1.935530963400  2.458961781200 -2.132055279000
C    2.929521637400  0.404791770400 -0.488464196900
C    3.590785932600  1.669425913900 -0.525211781100
C    3.095024721400  2.700426686000 -1.364897763900
C    3.765533367700  3.939734076100 -1.411313965700
C    4.864250257700  4.172611882400 -0.632300337600
C    5.324980542800  3.174982780900  0.238709157700
C    4.706346549800  1.956178551400  0.291371647300
C   -2.166837013100 -1.988408623100  0.655704976800
C   -3.075163792000 -1.348489354000 -0.379425917000
C   -2.508001278700 -0.844704498000 -1.521763514600
C   -3.271415361500 -0.197050451400 -2.499162748500
C   -4.616979969600 -0.048622609800 -2.324499235600
C   -5.253033036400 -0.589758806600 -1.189085887600
C   -4.483862945300 -1.275792047500 -0.208193475300
C   -5.174790042000 -1.857298690600  0.878030589600
C   -6.531364003700 -1.744740934700  1.003431175400
C   -7.279337706500 -1.036680712200  0.052319768600
C   -6.649468212900 -0.475676904800 -1.021256383700
C   -1.895256488000 -3.435808184500  0.252690167600
C   -2.374775734400  0.638638660300  1.617233645200
C   -3.407264642700  0.381016062900  2.486702683100
C   -4.664895372000  0.982822265700  2.350894595300
C   -4.903163314600  1.849480688500  1.326190062000
C   -2.588741926500  1.578548114300  0.568110288300
C   -3.873713240900  2.171223990300  0.419580956600
C   -4.103139983800  3.086322484800 -0.628834309100
C   -3.104178054600  3.433805290800 -1.491803950100
C   -1.829880526900  2.872891681400 -1.335480545300
C   -1.583521281500  1.967247202600 -0.341493331000
H   -1.403529171300 -1.408021603800  3.462476034500
H   -0.995666808400  0.260925813800  3.907524810200
H    0.251230865700 -0.837430398800  3.311458665600
H   -0.237630659400  0.614770456900  1.514203355100
H    2.785731652200 -2.989941462700  2.627547977500
H    5.176021843700 -3.576179357700  2.318570061200
H    5.180770182000  0.150391085000 -1.762384888600
H    7.477457378900 -0.567570675800 -2.181328753300
H    8.544403268500 -2.264544396200 -0.740948538000
H    7.254918034600 -3.313833055600  1.080475476300
H    0.338468040800  1.100622499400 -2.543665804700
H    1.588847064700  3.223955728800 -2.811512373200
H    3.382633337500  4.707869127200 -2.068334406700
H    5.372004133400  5.125275076800 -0.670167954600
H    6.173181648700  3.376313678300  0.876849463200
H    5.062264704000  1.203695958600  0.978829859500
H   -2.675557847800 -1.999706602500  1.623920108100
H   -1.440330921900 -0.933380415800 -1.659366505600
H   -2.785755057300  0.193393757200 -3.381795395400
H   -5.216284110200  0.471516369500 -3.058290515700
H   -4.630044025400 -2.418204660100  1.621304735000
H   -7.036893505700 -2.203772388300  1.841125923100
H   -8.349544469100 -0.947878319500  0.171555994300
H   -7.213996203000  0.060679689000 -1.771402458600
H   -2.836945010300 -3.980829812500  0.226328261900
H   -1.226966785600 -3.911635694900  0.967800317900
H   -1.443366667400 -3.479614482900 -0.735454750500
H   -3.273883023600 -0.306645122900  3.306530336700
H   -5.442750907400  0.741420826600  3.060368611000
H   -5.873993061500  2.305975060400  1.198097673500
H   -5.091363090000  3.513188821600 -0.728614992400
H   -3.284929490000  4.139748454400 -2.289573435800
H   -1.036598194400  3.162575796100 -2.008362853100
H   -0.593946059200  1.548984989900 -0.253388227100
