82
-125.29264547
C   -1.042197903600 -1.197712398200  3.251137416500
C   -1.231635595900 -0.507771073200  1.893657045300
N   -1.092793550100 -1.445283704600  0.769787011300
P    0.438204429300 -1.933184646700  0.223974286500
O    1.358586598200 -1.172482237300  1.374398282600
C    2.708924749400 -1.403924178800  1.167826910800
C    3.391019200400 -0.674217555500  0.218651881800
C    3.343426283500 -2.391879984300  1.938110314800
C    4.667349842600 -2.659801582400  1.749216989000
C    5.390593239100 -2.007935971100  0.727337876000
C    4.745474308000 -1.022142123700 -0.065990595600
C    5.457317704400 -0.467691761700 -1.151514430600
C    6.754308662900 -0.823957035100 -1.399107240400
C    7.408916980800 -1.752291274300 -0.576574774100
C    6.735667820400 -2.337840463300  0.458487807500
O    0.760801674200 -0.895784785100 -1.056244113000
C    1.500824452900  0.249349597200 -1.122899328200
C    0.979411685500  1.250863468500 -1.968660303500
C    1.629194887600  2.436199353600 -2.133665460200
C    2.720676446500  0.427106613300 -0.495982484400
C    3.337013370000  1.714484203500 -0.551101322100
C    2.796443403400  2.720180533500 -1.393509537300
C    3.426106447700  3.979645987200 -1.463699986000
C    4.527436269400  4.256686090900 -0.703139534700
C    5.030691286600  3.284781759000  0.173250812800
C    4.452498748200  2.047339638000  0.247890132200
C   -2.162840394300 -2.436277891500  0.613672455500
C   -3.514713498200 -1.870978925500  0.208274265400
C   -4.612741938200 -2.361852008600  0.874372249200
C   -5.916275905900 -1.964244163800  0.558315353200
C   -6.126438312200 -1.057024181100 -0.438976970700
C   -5.038574984700 -0.545947657000 -1.174095830200
C   -3.713530642800 -0.968344512800 -0.869852033400
C   -2.663540926600 -0.472408909200 -1.672210844300
C   -2.906907288700  0.392782997800 -2.701611988300
C   -4.209483986900  0.828595546100 -2.980030931600
C   -5.251032150800  0.366602734100 -2.228980894300
C   -1.799258211800 -3.534531340500 -0.390918084900
C   -2.519062639300  0.289150258400  1.810765842400
C   -3.599431436200 -0.041521415600  2.590815589200
C   -4.806796679700  0.665449770300  2.528113642600
C   -4.939800101300  1.720579077300  1.675097135900
C   -2.622317578700  1.413647249200  0.941892167600
C   -3.853635810300  2.123714961000  0.873218057300
C   -3.971924851800  3.236133407400  0.014250234900
C   -2.913994896100  3.662260808000 -0.735697957200
C   -1.692114608600  2.981602419200 -0.656456342500
C   -1.555386635800  1.885022911300  0.148008519600
H   -1.738986192200 -2.017854660400  3.400065851200
H   -1.176014982700 -0.472694933100  4.050570670300
H   -0.032880048800 -1.596328763900  3.308747421100
H   -0.399568236700  0.195736567900  1.792815880900
H    2.758074574600 -2.917788412200  2.677391711600
H    5.168687458400 -3.399705387600  2.355340228000
H    4.960794002100  0.236297283900 -1.801460391700
H    7.280724458200 -0.392459355000 -2.237895175700
H    8.437699547200 -2.012125648400 -0.778337981200
H    7.218522932200 -3.076496705000  1.082206449200
H    0.056638413300  1.034229802700 -2.483148236100
H    1.243193211400  3.183826822100 -2.811547679000
H    3.009303110300  4.727606323900 -2.123342001100
H    5.003911972800  5.224485401300 -0.758850531000
H    5.879701000400  3.520736001400  0.798291458300
H    4.841542424400  1.316072137900  0.940153884600
H   -2.321935769600 -2.932354801700  1.582180939400
H   -4.473987316900 -3.073917922800  1.676923622100
H   -6.745719698600 -2.375706191800  1.115089482500
H   -7.124913057400 -0.726586256900 -0.687731152500
H   -1.654580754300 -0.785262543600 -1.464444588600
H   -2.092955525600  0.751695051800 -3.315325535600
H   -4.379737806400  1.523489298100 -3.789878016600
H   -6.262981889600  0.686629558500 -2.435511831400
H   -1.442828539300 -3.102252153000 -1.323092789500
H   -2.687430973700 -4.127720967100 -0.601993143400
H   -1.031692069400 -4.192281442800  0.009483448200
H   -3.545301532000 -0.874980831200  3.272102042100
H   -5.629121824600  0.358855435700  3.158065925300
H   -5.869646308900  2.267119351900  1.607185923400
H   -4.921587539000  3.751011794300 -0.029851964900
H   -3.008758841700  4.520352491000 -1.385417710600
H   -0.850925042000  3.327201550600 -1.238193043700
H   -0.604346122400  1.378086977400  0.172245614100
