82
-125.29849283
C   -1.454267416900 -1.312277914300 -3.389676877300
C   -1.967996727600 -1.223100475200 -1.954696972700
N   -0.894593995500 -1.244177353400 -0.962870738700
P    0.697077383700 -1.183189889400 -1.512917983900
O    1.389568576000 -1.828800147600 -0.158924091600
C    2.771432047300 -1.871405111300 -0.248476234300
C    3.510789394200 -0.741132028100  0.024955451700
C    3.380509263800 -3.083439847600 -0.611388708500
C    4.738627978300 -3.162871963200 -0.709822276500
C    5.538038129100 -2.014733735100 -0.524074473900
C    4.922245037700 -0.782394021800 -0.177844454000
C    5.731767683700  0.371791163100 -0.105871968800
C    7.082710710000  0.298386570100 -0.305578754500
C    7.696679233700 -0.930521479100 -0.588205620000
C    6.936614453200 -2.060224037300 -0.704033868400
O    1.205427032400  0.414058895300 -1.295220056800
C    1.768244519400  1.018838918600 -0.209134867400
C    1.257013028600  2.290004004000  0.126407077200
C    1.769315464100  2.993464040500  1.174670731400
C    2.839128166000  0.487592782000  0.487626802600
C    3.291581429700  1.153102558000  1.665610658700
C    2.764821091100  2.428088428600  1.999108680500
C    3.238379477500  3.095249577800  3.147495145900
C    4.170295837000  2.514955414000  3.961584185700
C    4.652080363300  1.231620536200  3.665563651700
C    4.225178566700  0.567713174100  2.548561936400
C   -1.278853000800 -1.770545541000  0.354293261400
C   -2.613073109200 -1.199293496700  0.791572946100
C   -3.761917305900 -1.946518341800  0.704431032200
C   -5.012464582700 -1.431707543100  1.070965766900
C   -5.120574425000 -0.150992931100  1.524914236300
C   -3.970704962800  0.653604551900  1.655566438000
C   -2.697535454600  0.129113909600  1.299301694400
C   -1.574017104100  0.964251899500  1.474915327100
C   -1.698101700100  2.231504997500  1.972292868000
C   -2.956959372800  2.748248479500  2.306161383400
C   -4.068752574800  1.972036843100  2.146673125600
C   -1.243635703500 -3.303774998800  0.358362773000
C   -2.804249264300  0.036667372900 -1.811369802700
C   -2.154893069700  1.228303568200 -1.615141966800
C   -2.851909376900  2.425795174700 -1.423190416800
C   -4.216804965200  2.425603632500 -1.423997129400
C   -4.222625311400  0.020736033800 -1.894960720500
C   -4.929774305400  1.234800548300 -1.669370488700
C   -6.340248307800  1.234845980100 -1.712055256100
C   -7.038067182300  0.095677811900 -1.993611661700
C   -6.345708652800 -1.095508657400 -2.252812172800
C   -4.980158697200 -1.131432253700 -2.201842592600
H   -0.803795466600 -0.468733448800 -3.612422956700
H   -2.301036751700 -1.287262650700 -4.073205856600
H   -0.899802868400 -2.235732571000 -3.544137383700
H   -2.600162266100 -2.096047758000 -1.766899905000
H    2.747101184100 -3.937499344200 -0.798907862900
H    5.215872093100 -4.097669349800 -0.963984275800
H    5.270107020200  1.326100916200  0.096047898200
H    7.684839231100  1.193572507300 -0.250908222800
H    8.766600406600 -0.972525296100 -0.730124553800
H    7.392813122900 -3.008567181400 -0.949678961900
H    0.462147967800  2.690640931200 -0.483863801500
H    1.401102936600  3.983692511500  1.401714854000
H    2.838066772800  4.072742135100  3.377018480600
H    4.527920872700  3.030300177600  4.840984380500
H    5.363249532400  0.764198471400  4.331099479100
H    4.593291039800 -0.425885343300  2.341723279100
H   -0.515496578700 -1.437499841400  1.063638654400
H   -3.728818268900 -2.961692093100  0.342408059600
H   -5.886937367900 -2.059103080500  0.979314415100
H   -6.080935377900  0.262762927400  1.796986951400
H   -0.591236118700  0.604164254300  1.214272039600
H   -0.817598553600  2.841325114300  2.108619055400
H   -3.038128137900  3.755309084100  2.689274754900
H   -5.048113219800  2.352670471700  2.401209314400
H   -1.831678156100 -3.723778881500 -0.454168622800
H   -1.616506530000 -3.685061447800  1.306032438800
H   -0.215659732300 -3.632284994300  0.232320053500
H   -1.076393013700  1.232478999200 -1.588831351600
H   -2.303519925600  3.342393924100 -1.260150585600
H   -4.770700415500  3.337496813400 -1.251248618900
H   -6.858847276800  2.165020790300 -1.525124931000
H   -8.117976691800  0.105018136100 -2.027566641600
H   -6.901431933100 -1.990203602000 -2.495281515800
H   -4.477889032500 -2.061330160400 -2.418718174000
