82
-125.29299221
C   -3.401799885400 -2.794038596500 -1.208684095400
C   -3.199535036500 -1.273626541600 -1.011271306000
N   -1.925436243700 -0.939725225200 -0.373123073600
P   -0.640738294700 -0.382463372200 -1.298961125000
O    0.453304055200 -1.503806950100 -0.707115973400
C    1.764059270500 -1.300998324600 -1.066494392900
C    2.519294613700 -0.355055844400 -0.405919917900
C    2.307763000800 -2.093252514200 -2.092086309900
C    3.608436879300 -1.929740113500 -2.466443612500
C    4.401204803100 -0.919928596400 -1.879633344500
C    3.849442157800 -0.104055622300 -0.855799171100
C    4.629767728800  0.963280999200 -0.360979527800
C    5.904578802800  1.172407256600 -0.810045376700
C    6.467788673100  0.328834182900 -1.778463645900
C    5.725297787800 -0.689013365100 -2.307811472000
O   -0.067360083300  0.968518433300 -0.513193553900
C    0.738306423300  1.073462293000  0.590121094000
C    0.323418079600  1.994921523800  1.572832072900
C    1.042085808300  2.165841070600  2.717149489300
C    1.941696364800  0.404260477400  0.719608356200
C    2.632610154900  0.477799785400  1.966224334000
C    2.180232609300  1.372399862200  2.970648494400
C    2.876111272700  1.447654703200  4.194382605900
C    3.954739451900  0.644582955300  4.439040604900
C    4.374070306800 -0.275993119600  3.467698693700
C    3.732600301000 -0.356330452500  2.262340661100
C   -1.803231366800 -0.979842525700  1.080609591100
C   -2.245483391800  0.295566426200  1.775155484100
C   -3.007297492800  1.231103196000  1.124810585000
C   -3.502010966400  2.368069447300  1.779939906500
C   -3.231514861400  2.568540034900  3.101890266500
C   -2.399570566500  1.668521513900  3.800693502400
C   -1.874241537700  0.528040107800  3.132105335600
C   -0.969401687000 -0.288485601000  3.847249752000
C   -0.645480636900 -0.025146203900  5.149255671300
C   -1.210483722700  1.069144091500  5.818465915400
C   -2.062108051500  1.901898419700  5.150775449700
C   -2.538208781100 -2.172494993200  1.704130808400
C   -3.390120511400 -0.519799430700 -2.313314485400
C   -4.330574840600  0.482685050100 -2.336634697900
C   -4.614975219900  1.215197702600 -3.496484056000
C   -3.963891678800  0.925261537300 -4.659495401900
C   -2.701683597000 -0.840889731500 -3.517781492800
C   -3.002545155200 -0.105486958000 -4.697638615000
C   -2.333105904900 -0.414368100000 -5.902238400800
C   -1.399245138300 -1.408134124100 -5.955118317300
C   -1.092067162300 -2.131671242000 -4.793603248200
C   -1.721389290700 -1.854543648100 -3.612464956300
H   -4.081451909200 -3.193967425100 -0.460954223800
H   -2.458244817900 -3.325554001800 -1.123873404600
H   -3.827078539700 -2.994445291500 -2.188958949300
H   -3.991527278600 -0.926680794700 -0.336550751100
H    1.669733706500 -2.829766205300 -2.556165107600
H    4.040006198600 -2.551248324200 -3.237208466500
H    4.203761706600  1.630038700800  0.372986678700
H    6.483964590200  1.997152591500 -0.421228388300
H    7.480549471000  0.500475622900 -2.112503541600
H    6.136576774900 -1.329388120300 -3.075146357900
H   -0.570223685900  2.566631882200  1.377880984400
H    0.726640576300  2.886209581600  3.456956515200
H    2.526201510600  2.146061267100  4.941075764200
H    4.480618766400  0.703664625500  5.380779660200
H    5.208619797100 -0.928879273800  3.678623215100
H    4.056539027100 -1.078399646300  1.527853275300
H   -0.731526135300 -1.112305223100  1.271315381400
H   -3.218182376700  1.113817639900  0.073889118600
H   -4.105450171000  3.073517088600  1.226407849000
H   -3.628057437800  3.426645254000  3.625958406600
H   -0.492430886200 -1.122366125500  3.356405119000
H    0.058260365000 -0.660434101200  5.667661912700
H   -0.953651061800  1.255847612000  6.851143482400
H   -2.485408516400  2.766309624200  5.643496557500
H   -2.342038493600 -2.205178308600  2.772158015600
H   -2.195220936700 -3.102019647500  1.259220180800
H   -3.612371057800 -2.081071793800  1.568479877100
H   -4.888886633600  0.715560369200 -1.439812596100
H   -5.358112937200  1.998305357000 -3.458425561500
H   -4.176638920000  1.473337220000 -5.566135299300
H   -2.576865058600  0.159350659700 -6.785353563400
H   -0.891603607700 -1.639150068700 -6.880282983700
H   -0.347803667600 -2.913497490800 -4.839558248200
H   -1.459181527400 -2.419350215100 -2.733865649900
