82
-125.29752125
C   -2.951383212400 -1.138863698700 -2.551504408500
C   -3.042206709700 -0.016590407400 -1.515681790200
N   -1.879028067400  0.002657682800 -0.631727046200
P   -0.411067988600 -0.382858840500 -1.346868852000
O    0.185776354900 -1.335148876400 -0.129507382800
C    1.455336759200 -1.816866113700 -0.342278756000
C    2.548923132900 -1.000341302000 -0.144874031600
C    1.599626829300 -3.156308021800 -0.743598365000
C    2.840178465700 -3.673305228900 -0.972885826800
C    3.984982566000 -2.851591368300 -0.886518918800
C    3.842268686600 -1.494638998300 -0.491554068300
C    4.987618005700 -0.669620950900 -0.516833340800
C    6.213392401200 -1.173543221000 -0.854820221000
C    6.361274637200 -2.528079503700 -1.186131523800
C    5.266158872500 -3.345359228600 -1.209919480500
O    0.589643544100  0.946016521300 -1.142078109500
C    1.480639632200  1.255883935700 -0.156764404900
C    1.500178476400  2.614800733000  0.225364610600
C    2.329632243200  3.054068209500  1.212136836300
C    2.377777911600  0.360273940800  0.394833375600
C    3.156611658800  0.780170245900  1.515160800600
C    3.140023896900  2.140446015800  1.918942961100
C    3.921933834300  2.548353480400  3.019044870100
C    4.665775537800  1.644340127800  3.724550820600
C    4.642107076900  0.289865983100  3.362375257300
C    3.910058301300 -0.131050436900  2.286381216700
C   -2.140989049900  0.537248613500  0.708907699400
C   -1.249561594000 -0.092384645200  1.760040640600
C   -0.302483920600  0.635435774800  2.432652465800
C    0.513225805400  0.055230746900  3.415643060500
C    0.381545432000 -1.264862158500  3.728001126700
C   -0.586734002300 -2.056458693800  3.074799827100
C   -1.424472880300 -1.469970838300  2.087925339600
C   -2.379584482700 -2.299646021400  1.462058335400
C   -2.495761799200 -3.624044717700  1.783734004800
C   -1.662641744800 -4.197915527700  2.753689309000
C   -0.730016161800 -3.425185262600  3.385355832200
C   -2.127705645100  2.068038341100  0.712997461700
C   -3.286871509700  1.297331007200 -2.235724865800
C   -2.215208330900  1.957962982000 -2.778866689300
C   -2.361591510700  3.171920510900 -3.460378114600
C   -3.601396558800  3.725317669700 -3.605309681700
C   -4.595051420400  1.833701845200 -2.400398729200
C   -4.739668538200  3.072381006600 -3.088998419800
C   -6.025487997900  3.630227923700 -3.256209035400
C   -7.137013059300  2.997662485900 -2.777946182100
C   -7.003851963700  1.771378968400 -2.111264221400
C   -5.771501349900  1.207851522300 -1.928577919400
H   -3.928065933400 -1.293613573300 -3.006007324000
H   -2.628745022000 -2.060639217900 -2.071216406300
H   -2.243855927500 -0.884793149000 -3.336071699800
H   -3.899279094900 -0.232478938700 -0.868214175400
H    0.704919684000 -3.750994145300 -0.850943400100
H    2.959629568900 -4.708584128300 -1.256713353700
H    4.886050634500  0.378340993800 -0.279434654800
H    7.076538255200 -0.524138569400 -0.873083626100
H    7.338676535500 -2.912816618600 -1.437960328200
H    5.360449674100 -4.384498419800 -1.491575716300
H    0.849418181300  3.295338368200 -0.305020924900
H    2.352430479500  4.099374903600  1.484319722600
H    3.907940829700  3.591542402300  3.302154923500
H    5.258901949600  1.961897673200  4.569764551300
H    5.203620208000 -0.425938783600  3.945155661000
H    3.885758592500 -1.179688359600  2.031979089300
H   -3.170105204100  0.238642992300  0.965914164600
H   -0.152839353900  1.679864766500  2.212513929200
H    1.250943567900  0.668543249400  3.912353894900
H    1.014597174700 -1.723731352000  4.474560186000
H   -3.024607624300 -1.891177936500  0.701557326500
H   -3.233031106500 -4.238703167900  1.286365749700
H   -1.763581342900 -5.246570845100  2.994598149100
H   -0.079599403400 -3.851931376100  4.136577882800
H   -2.901619285100  2.436858726800  0.042837610400
H   -1.172660784000  2.450123539200  0.367747312500
H   -2.328625287800  2.442700154700  1.714163897800
H   -1.225181570900  1.538059137200 -2.665385292700
H   -1.487395411500  3.661107379500 -3.864899248800
H   -3.731904451800  4.665050578300 -4.122890566300
H   -6.111529516200  4.572788587000 -3.778568887400
H   -8.117791557900  3.430347208300 -2.911466306800
H   -7.886622802900  1.269556843800 -1.741606160100
H   -5.710288842300  0.258459576600 -1.419512422800
