82
-125.29592320
C   -2.458660931500 -1.987025379300  2.382624379500
C   -2.456463794800 -1.353350948100  0.985765492700
N   -1.378225898600 -0.382199654500  0.811468842500
P   -0.211185225400 -0.779881399500 -0.329289006000
O    0.988842660300 -1.273225603000  0.745706847800
C    2.205695240200 -1.518590368500  0.159511057700
C    3.037972417800 -0.462040237400 -0.147600740500
C    2.575887898000 -2.847305642600 -0.109737919500
C    3.777654946700 -3.116482768700 -0.695320915500
C    4.630925250200 -2.067075183500 -1.099720810900
C    4.251721631000 -0.721424776200 -0.847268742000
C    5.073052876200  0.310492034600 -1.351055298700
C    6.233385242800  0.025819030700 -2.016422919200
C    6.634251309100 -1.303494136600 -2.215177810300
C    5.842981860700 -2.326373675000 -1.773227721200
O    0.441138576500  0.680879095500 -0.763842599100
C    1.411557373600  1.420765580500 -0.126826785700
C    1.115262626400  2.785161372100  0.073494982100
C    2.002748180500  3.606749357300  0.701231000300
C    2.644089106100  0.908833354700  0.229640900800
C    3.534460343500  1.730106070700  0.984791294300
C    3.213178086200  3.093532901100  1.212866915300
C    4.104643826000  3.902093021700  1.947823267900
C    5.255223610600  3.381559062000  2.470541784800
C    5.550538231000  2.022465704900  2.290907461000
C    4.713915211900  1.217646044500  1.567542639100
C   -1.344502048500  0.827215438500  1.633169420700
C   -2.735007412000  1.390473214400  1.847303258700
C   -3.331621900500  1.391433429600  3.083057841900
C   -4.610640092400  1.930686040100  3.285908037400
C   -5.296323527500  2.486873704600  2.246217567400
C   -4.722615132000  2.528374326600  0.958207379600
C   -3.430764683400  1.971416793000  0.745911191200
C   -2.895728970700  2.031510788700 -0.561001529900
C   -3.583911166400  2.622402469100 -1.585303311900
C   -4.853306948600  3.176090289500 -1.367435816500
C   -5.410554810200  3.122224653200 -0.121376115800
C   -0.527153728500  0.647783666300  2.917909294100
C   -2.327207373400 -2.401448091500 -0.099460190500
C   -1.576836362800 -3.532220593300  0.124985817500
C   -1.439411419300 -4.532709243200 -0.845335299200
C   -2.063471978600 -4.408210590100 -2.052497548600
C   -2.977830947500 -2.243322677800 -1.356774812200
C   -2.843223470900 -3.268208611500 -2.335457054800
C   -3.489665912500 -3.130385847700 -3.582251383100
C   -4.237053345200 -2.024143957400 -3.869881904900
C   -4.362831496000 -1.005544884200 -2.915162480500
C   -3.752293491100 -1.112975067700 -1.696216618700
H   -1.452990235100 -2.267810624700  2.683091800700
H   -3.092803371200 -2.871103571500  2.379444767200
H   -2.860145593400 -1.284762269100  3.107589974100
H   -3.418567768000 -0.835786420100  0.873702194700
H    1.886994659500 -3.631594933900  0.164295833100
H    4.078612784400 -4.136395076100 -0.885018397500
H    4.768570614600  1.337298954400 -1.216526503200
H    6.847070215800  0.828923418400 -2.397875838200
H    7.560074501700 -1.510162343300 -2.731802007800
H    6.126887274300 -3.355229262900 -1.943250444700
H    0.174571128300  3.162756632400 -0.301010641200
H    1.775889527000  4.654040432800  0.835999392600
H    3.851141138500  4.941847185700  2.098420558200
H    5.932958398800  4.005453474700  3.034585815600
H    6.445190365700  1.609591647000  2.733810920700
H    4.945628275000  0.169945750000  1.450155735600
H   -0.799365473300  1.574477532000  1.046977383400
H   -2.817730426900  0.981218394900  3.937667522400
H   -5.041250504400  1.902882930200  4.276491374400
H   -6.280382361200  2.909020809800  2.392084377600
H   -1.933411727300  1.590763419500 -0.768666361300
H   -3.148880516900  2.656588412300 -2.573867858300
H   -5.383800693500  3.637588063000 -2.187802373000
H   -6.391255016500  3.538750032300  0.061567000300
H    0.476818508900  0.326949982400  2.649263901100
H   -0.949535751300 -0.097796475500  3.582450708000
H   -0.455732128700  1.599258299400  3.441682428100
H   -1.073430980700 -3.665852041700  1.069023568900
H   -0.838820139000 -5.403433974400 -0.624833919600
H   -1.968722143900 -5.175218232400 -2.807767173700
H   -3.377893472100 -3.922840689400 -4.308928305900
H   -4.729236082400 -1.925499065500 -4.826531056900
H   -4.948059555500 -0.127377646100 -3.146427126900
H   -3.859697365200 -0.304663439000 -0.990998311100
