82
-125.29555345
C   -1.477412535700 -1.570995282700 -3.501604652200
C   -2.060538639600 -1.321821966200 -2.109833602300
N   -1.032545858400 -1.274795450500 -1.078263466400
P    0.560663181500 -1.067327904700 -1.563567669000
O    1.271718425900 -1.880533949500 -0.304887673300
C    2.653351488500 -1.862809090800 -0.381182755700
C    3.353972440000 -0.749689595400  0.033155394000
C    3.304801513800 -3.002760565300 -0.880311257200
C    4.664683846100 -3.025754723200 -0.979048075000
C    5.424170139400 -1.880068470300 -0.658245893600
C    4.766367881200 -0.719151827900 -0.171492762100
C    5.535501102300  0.446738522900  0.032938402300
C    6.887685631300  0.444475110300 -0.172229996200
C    7.543798999400 -0.721396072000 -0.592775499900
C    6.822997571100 -1.855830901800 -0.839694732000
O    0.980370656500  0.495644731800 -1.098405204700
C    1.552182178200  0.971843591700  0.043245368000
C    1.006917006800  2.173797892800  0.541453917600
C    1.525482174100  2.767409240500  1.651225584100
C    2.651692484100  0.391406776700  0.649237497700
C    3.106384671000  0.924585278100  1.893169855800
C    2.557188894500  2.138926475600  2.380788517300
C    3.034317095400  2.677102427000  3.593724911100
C    3.985651191700  2.023590328500  4.326062295200
C    4.486698822500  0.793226493200  3.877157661900
C    4.060531397000  0.258175269400  2.692569944700
C   -1.410542174400 -1.632129743700  0.293043848200
C   -2.515863605800 -0.763005344700  0.860936940300
C   -3.814863234600 -0.953097448900  0.456187973000
C   -4.864919308700 -0.143238227400  0.904879420500
C   -4.618758276300  0.862643692700  1.791528376200
C   -3.317792802300  1.057992596900  2.297689557500
C   -2.245304140200  0.237105718600  1.841918917300
C   -0.982313145100  0.439460773400  2.442917427200
C   -0.790861980600  1.376618431900  3.420152975400
C   -1.843764977400  2.201589758800  3.836263417200
C   -3.079678227700  2.044757909500  3.277986606200
C   -1.730714080800 -3.127212689300  0.424909925200
C   -2.891711848500 -0.051755879400 -2.167620024700
C   -2.304911246100  1.148347896100 -1.863572866900
C   -3.019279103900  2.351641302000 -1.911259422700
C   -4.335007973800  2.350600660500 -2.273515481200
C   -4.251266600100 -0.078061251600 -2.586414596800
C   -4.977070779900  1.145186081600 -2.624059209400
C   -6.330910036700  1.138795712600 -3.022781134000
C   -6.955447262300 -0.021179988300 -3.382496598800
C   -6.242643451300 -1.228368478500 -3.360573933900
C   -4.930956350400 -1.254888782200 -2.974729463300
H   -0.872687103500 -0.723976569800 -3.817535524500
H   -2.289304094200 -1.698674261500 -4.214582657400
H   -0.859142843500 -2.466591359500 -3.499943735200
H   -2.708741881100 -2.169541779600 -1.870983854500
H    2.698955674100 -3.848468284900 -1.169368301000
H    5.173778359000 -3.908242296800 -1.337203031000
H    5.041706301100  1.355595817600  0.340665413000
H    7.457708819000  1.348551520900 -0.015231884700
H    8.614193060600 -0.709388260300 -0.736836643500
H    7.311090666500 -2.752879087400 -1.193082091600
H    0.179975248200  2.611802582800  0.003739612600
H    1.125085697500  3.705137302700  2.007123443400
H    2.616449734600  3.611854020900  3.940377869800
H    4.342969449300  2.438607211800  5.257168785500
H    5.211971384300  0.263429573600  4.477520907000
H    4.444435646900 -0.696951983800  2.367147981500
H   -0.506636545300 -1.468121553600  0.877797866500
H   -4.062226520400 -1.745911972200 -0.230331068000
H   -5.863749484500 -0.323896095400  0.535594708800
H   -5.414959526100  1.505900127200  2.138155971500
H   -0.135302342100 -0.162408805300  2.151875007000
H    0.182880169700  1.483601780500  3.874741226200
H   -1.671763961300  2.946993105600  4.599012505200
H   -3.908587904900  2.663511212800  3.592487364300
H   -2.616453904400 -3.418006087600 -0.132299060800
H   -1.895640594100 -3.365412688800  1.473364876000
H   -0.885441755200 -3.707390699500  0.060922289500
H   -1.266066966000  1.165146737900 -1.573269197600
H   -2.520663133100  3.275838353600 -1.656109252900
H   -4.901839509400  3.270345249000 -2.305948002400
H   -6.865099152200  2.078608029400 -3.040412074500
H   -7.991995910500 -0.017525162800 -3.687183126900
H   -6.738453506700 -2.142861065300 -3.653764965100
H   -4.410715887000 -2.200458333000 -2.978546718500
