82
-125.29570664
C   -0.149525823500  1.566387644300  1.004507177300
C   -1.202853234300  0.741690246500  0.254122330100
N   -1.012559933100 -0.711492198600  0.376529655000
P    0.405737883800 -1.504206541600 -0.075776818800
O    1.357645557800 -0.897785074300  1.148516848900
C    2.672182353400 -1.301913061000  1.059283435900
C    3.525502118200 -0.695240566200  0.160248150100
C    3.109688755300 -2.339640068100  1.900358013000
C    4.397559986900 -2.782435525200  1.831310761100
C    5.283106677700 -2.260631893600  0.863811852300
C    4.841025067200 -1.222560721100  0.001110201800
C    5.709351458900 -0.791343657400 -1.025080652100
C    6.965243064400 -1.317427659300 -1.152711895300
C    7.420583561500 -2.301060776500 -0.262666089700
C    6.591514865500 -2.767461090000  0.718569130900
O    1.040246366700 -0.629035714100 -1.354045949000
C    1.896137021100  0.435583491500 -1.348943610100
C    1.543148084900  1.500921651200 -2.203803500600
C    2.323835955700  2.613289797800 -2.289562216700
C    3.071616837500  0.470960522700 -0.621233411300
C    3.835099107700  1.677655392400 -0.616151509000
C    3.467482673600  2.747631488500 -1.473620029800
C    4.240068974800  3.927187920100 -1.481156049800
C    5.314683313300  4.067844845100 -0.648530337700
C    5.645373988400  3.036266303200  0.241776248100
C    4.925689286900  1.873292887900  0.259111679400
C   -2.241152480800 -1.496498474400  0.218484357900
C   -2.938329906300 -1.228794093000 -1.100662690200
C   -2.182481285800 -1.212793970500 -2.244573156600
C   -2.744741351300 -0.950022399300 -3.499832625400
C   -4.083397900800 -0.703363004800 -3.605455493400
C   -4.908265350500 -0.731849076200 -2.461660823500
C   -4.340772922000 -1.007374670900 -1.185140428200
C   -5.214725209800 -1.051755614600 -0.075876127200
C   -6.555042754600 -0.822372844000 -0.214528427500
C   -7.105293032300 -0.535750987000 -1.471784449600
C   -6.295300717300 -0.494365383200 -2.570108619600
C   -1.988583075200 -2.994849161200  0.371856430800
C   -2.567294775800  1.206853292800  0.719744083400
C   -3.339945255800  1.922147417600 -0.160096568700
C   -4.576004354300  2.466273939500  0.212706350400
C   -5.040571398100  2.296542826400  1.484088688300
C   -3.038285770200  1.002023437200  2.047298600900
C   -4.289757824700  1.562261562500  2.425328785600
C   -4.768143037600  1.365020738500  3.738851658100
C   -4.054547545200  0.636179600000  4.647146960600
C   -2.830893179800  0.061828999500  4.272080168100
C   -2.337310364000  0.237942450800  3.009217478900
H    0.830886996200  1.466131724700  0.550744486000
H   -0.079621044100  1.271291451800  2.046082441400
H   -0.436598166800  2.616150210000  0.957597321000
H   -1.123840754400  1.011101421600 -0.812657928800
H    2.399977625800 -2.759882326100  2.597154949700
H    4.745740747900 -3.562027267000  2.492735064500
H    5.365838769800 -0.044670800000 -1.724824248200
H    7.613457242500 -0.978397043000 -1.947626155900
H    8.420168804200 -2.696143032400 -0.369609437100
H    6.919788981900 -3.544706480200  1.393889464100
H    0.640862670300  1.397246338300 -2.788403227900
H    2.059539451500  3.417451381000 -2.960480560800
H    3.955085235300  4.724028860600 -2.153453566700
H    5.901734171200  4.974474566100 -0.658301992500
H    6.473449108200  3.166871692400  0.923146844200
H    5.182234746500  1.095667958500  0.962187438100
H   -2.894701053800 -1.198665565100  1.040548055100
H   -1.118703122200 -1.399723234700 -2.176966773800
H   -2.109959839500 -0.941184602800 -4.374426864500
H   -4.532526798800 -0.489595091600 -4.565100675800
H   -4.828528411900 -1.273615026100  0.906614636900
H   -7.199650169700 -0.861356764800  0.651688959400
H   -8.166199203000 -0.353310441500 -1.562796998300
H   -6.704873167700 -0.281718118300 -3.547853793900
H   -1.500701546700 -3.406283760700 -0.508095765000
H   -2.941329476500 -3.503384437900  0.506498307200
H   -1.362508758100 -3.177756307100  1.243256305800
H   -2.990628670200  2.076237550700 -1.171931023000
H   -5.150774339400  3.018476797200 -0.516265323900
H   -5.989471449200  2.715011545800  1.787666442700
H   -5.719294285400  1.801706824400  4.009557337600
H   -4.428553744800  0.489753034400  5.650192034100
H   -2.279332738000 -0.528446418100  4.989895130100
H   -1.407932128000 -0.233435792300  2.731368313000
