82
-125.29204564
C   -2.901070441700 -3.143183449100 -0.715479205400
C   -2.553471444100 -1.652562483100 -0.629670278100
N   -1.306314778100 -1.393426336700  0.096020706900
P    0.050922517200 -1.804671451300 -0.824752682900
O    1.092967120700 -1.987087655400  0.451584284700
C    2.432358984200 -2.006861714400  0.114931726400
C    3.098635934000 -0.819374483600 -0.105635957800
C    3.091801720000 -3.244666670900  0.045696159900
C    4.422182526100 -3.293551407300 -0.254022765000
C    5.133812938000 -2.113282976200 -0.556566648800
C    4.464512359800 -0.860967005900 -0.505221543700
C    5.172911389600  0.294422304700 -0.901064586500
C    6.485951503600  0.220712056700 -1.275492308700
C    7.159795023800 -1.009799935800 -1.276144696500
C    6.493394222900 -2.152073710500 -0.932096872200
O    0.636621656100 -0.353743498900 -1.420098599700
C    1.178918813500  0.638134721000 -0.647644563200
C    0.514763955700  1.878814316100 -0.625855138400
C    1.014819280900  2.915945664700  0.105188046400
C    2.365471384200  0.454674345100  0.038786952500
C    2.840572356300  1.494220690700  0.887666615200
C    2.164984947800  2.743905364700  0.904752559800
C    2.647146056700  3.776939783500  1.735609133900
C    3.732402092400  3.580577839100  2.542674289300
C    4.372522319000  2.332381960700  2.562190958100
C    3.939045682700  1.315598120300  1.757118175100
C   -1.268387857300 -1.158391067300  1.539847065800
C   -2.175180125800 -0.017857098800  1.976176416100
C   -1.562776609200  1.211289655400  2.077051657900
C   -2.248444481700  2.369282016400  2.459624033100
C   -3.578192716700  2.302641324300  2.756531144000
C   -4.259701490600  1.071477214400  2.681136955000
C   -3.563233070100 -0.111613520000  2.292820486700
C   -4.314682899300 -1.307846846500  2.243066696300
C   -5.647568213500 -1.339543882600  2.545971395100
C   -6.323028013200 -0.170967476600  2.922878338100
C   -5.636293925600  1.006777376300  2.988069090900
C   -1.361544328600 -2.443208919500  2.379042402500
C   -2.403561098000 -1.017827303100 -2.002209840500
C   -2.009765688600 -1.772109938900 -3.081262184000
C   -1.804812411000 -1.207923572600 -4.347444240500
C   -1.989591795800  0.129184134900 -4.541455189200
C   -2.619063159600  0.378713846300 -2.185212716300
C   -2.401431382200  0.949574539000 -3.471615658400
C   -2.597763620400  2.333941193500 -3.663694942900
C   -2.999723463500  3.139785735200 -2.636599361200
C   -3.225267150500  2.583593311100 -1.369838144900
C   -3.040567966000  1.245565640200 -1.152698778600
H   -3.666641138700 -3.304497577200 -1.470890441000
H   -3.286823739700 -3.506773136500  0.232930658100
H   -2.014974634600 -3.723673104000 -0.964290387000
H   -3.365163310700 -1.149663720500 -0.098181634800
H    2.519967369400 -4.139159484200  0.243004185800
H    4.940691021300 -4.240335565200 -0.289403762100
H    4.660149893100  1.244084524700 -0.916726661500
H    7.011525760600  1.114635073300 -1.578262780300
H    8.200161259400 -1.047876391900 -1.564078488300
H    6.994373156500 -3.109424600100 -0.952230885100
H   -0.391091877700  1.974803939500 -1.204068732100
H    0.514477299100  3.873309785800  0.104046351200
H    2.130912712400  4.726529611200  1.727336592300
H    4.094533049200  4.375734241600  3.177843378900
H    5.211969558700  2.175862482300  3.223963793600
H    4.430744333800  0.354999518900  1.789651836200
H   -0.256924824200 -0.775181728700  1.714599345900
H   -0.510620436900  1.297561377100  1.845876504600
H   -1.711552017400  3.304328223800  2.519389416300
H   -4.128045642200  3.184090392800  3.054504093700
H   -3.831169891100 -2.223807732900  1.960214171700
H   -6.188042177300 -2.273843833500  2.494967263000
H   -7.376380654300 -0.210556323700  3.158844153800
H   -6.137413095100  1.919782661200  3.277868141500
H   -0.394858287900 -2.941887779400  2.356818799000
H   -2.094247724200 -3.146187534500  2.000253974200
H   -1.602660929100 -2.195712523200  3.410573891200
H   -1.849362008100 -2.832533577700 -2.974239002100
H   -1.491577382200 -1.844703472300 -5.161927927400
H   -1.824215758600  0.579438614500 -5.510018427400
H   -2.421598412400  2.744752356000 -4.648162791900
H   -3.146256898300  4.198957459600 -2.791706857300
H   -3.544191814400  3.218454751500 -0.555909137700
H   -3.212865735200  0.857918421600 -0.163366213500
