82
-125.29221589
C   -0.441489311800  1.886139099300  0.751843342800
C   -1.460816204700  0.749412055900  0.639825764300
N   -0.930568786000 -0.497606279900  0.080599238000
P    0.339632205400 -1.450362083700  0.734159643600
O    1.219385691000 -0.197012122100  1.338776858200
C    2.540509629000 -0.493208899400  1.610620377100
C    3.461514625400 -0.492935330200  0.584987305200
C    2.917705220000 -0.748327928700  2.938783066600
C    4.222091575600 -1.017400569100  3.237099015100
C    5.190576339200 -1.100497379100  2.214433513300
C    4.808183559400 -0.856362707500  0.867817128400
C    5.774262826100 -1.032702462600 -0.146598769400
C    7.060099257500 -1.382068506500  0.160149853800
C    7.448336865100 -1.574068534500  1.494647679400
C    6.529690380300 -1.443389009600  2.497744486200
O    1.252030889800 -1.788909491500 -0.621390214500
C    1.950310615400 -0.847968580100 -1.336014350600
C    1.594444142000 -0.657449524700 -2.684282368700
C    2.248846282800  0.263292044600 -3.449178936000
C    3.012015922600 -0.158848990500 -0.781356845800
C    3.642984874400  0.868063773400 -1.538537756300
C    3.259769663800  1.073274151100 -2.890703628800
C    3.895858916500  2.083495707100 -3.642304339400
C    4.851093754800  2.881483662200 -3.078137595600
C    5.199000625600  2.710065957800 -1.729802119200
C    4.611285408500  1.730132412000 -0.978741895300
C   -2.066346585300 -1.296312827400 -0.411042407200
C   -2.691230043900 -0.629565912700 -1.624637687400
C   -1.887958957700  0.068604004000 -2.491200474900
C   -2.397428028900  0.673283579400 -3.646824505900
C   -3.727807183100  0.575052927800 -3.937201476800
C   -4.595561917900 -0.132218887600 -3.079123641600
C   -4.080990455900 -0.750494804700 -1.904130018200
C   -4.989755869900 -1.450573980200 -1.078571909900
C   -6.318338063300 -1.532653817100 -1.391116634100
C   -6.818899922500 -0.922122847800 -2.550056561600
C   -5.971962463500 -0.237271343100 -3.373567868900
C   -1.687686651300 -2.723480505100 -0.805845983300
C   -2.195830233500  0.578366921300  1.956885579000
C   -1.725538543800 -0.301538351100  2.895912909200
C   -2.363018487500 -0.487934950300  4.129205936200
C   -3.491311163700  0.220511062000  4.424234422700
C   -3.368848294700  1.335521839300  2.242507209600
C   -4.018054192300  1.141840066900  3.494897135700
C   -5.185236892500  1.876049033000  3.795914633600
C   -5.704415128800  2.771422326300  2.905267713700
C   -5.069742016600  2.968340841700  1.670873356300
C   -3.936015915100  2.273859186900  1.350728773700
H    0.201657798300  1.897202339500 -0.124926506300
H    0.173700294000  1.789013548300  1.640465556600
H   -0.976475285500  2.832476748400  0.808714638800
H   -2.189420940200  1.065460673100 -0.115648241400
H    2.155486211500 -0.715670167600  3.703189180400
H    4.523677569900 -1.196734572900  4.258580777000
H    5.482906544500 -0.899415206800 -1.177313685000
H    7.785564546700 -1.516624981500 -0.628881448000
H    8.471092317600 -1.839005253100  1.719435053000
H    6.810790546500 -1.611749739400  3.527589242900
H    0.807041286700 -1.271788153800 -3.094810833200
H    1.984545058700  0.396570753700 -4.488211457400
H    3.603455215500  2.219037090400 -4.674014279200
H    5.333145699400  3.654075052700 -3.659214390000
H    5.934937247600  3.363275505800 -1.283837221200
H    4.876464672800  1.615695881200  0.061500277900
H   -2.813849545300 -1.350770043800  0.394034962300
H   -0.837621103300  0.166670549400 -2.263040124800
H   -1.728159822200  1.215379930600 -4.299125851000
H   -4.137261799400  1.035561365900 -4.825146657200
H   -4.636022180000 -1.934383097900 -0.181280887300
H   -6.992380712300 -2.073077033200 -0.742043848400
H   -7.871197101200 -0.998206291300 -2.782465220900
H   -6.342696504100  0.238345305000 -4.270898945600
H   -0.875811245700 -2.715876341500 -1.527191955300
H   -2.551521697000 -3.207054158200 -1.258838987100
H   -1.380101876500 -3.303830920900  0.061559524700
H   -0.837524240100 -0.881178067900  2.682778654200
H   -1.953156834300 -1.195150631300  4.835645907900
H   -3.997476290000  0.088203960900  5.369839020400
H   -5.661162455500  1.713183490200  4.752833142600
H   -6.598628099400  3.329204038400  3.142440523300
H   -5.482794566900  3.677605181300  0.968044784900
H   -3.473497375800  2.455549730900  0.392893963900
