82
-125.29735009
C   -3.410954688900  0.192911796300  2.791150109700
C   -2.052340979200 -0.289482737300  2.267402107900
N   -2.137637975800 -1.064078060100  1.019502181800
P   -0.748460210400 -1.885017076800  0.429943540300
O    0.337292461300 -1.052970713800  1.356193525700
C    1.656801476400 -1.211274309800  0.988523796000
C    2.160707360200 -0.519404243300 -0.092763514700
C    2.466719901200 -2.059785630700  1.761325441200
C    3.782297035400 -2.229429408100  1.442850499700
C    4.325550761200 -1.614234348900  0.295247802700
C    3.504321556700 -0.769426472200 -0.498896966500
C    4.042758139200 -0.250913134800 -1.696952492800
C    5.337350208400 -0.505281522900 -2.056530826500
C    6.163785790600 -1.291436603700 -1.240078385700
C    5.662737310700 -1.841119256400 -0.093854670800
O   -0.462391182400 -1.190872581700 -1.047288705600
C    0.063866227700  0.049485084500 -1.295987155900
C   -0.678847873100  0.888534233400 -2.147557089700
C   -0.206132273800  2.119671678800 -2.490914432200
C    1.304555425900  0.433804708800 -0.825701707200
C    1.746786077300  1.766239585100 -1.070199185900
C    0.995327185500  2.606339642700 -1.932893758500
C    1.454069523700  3.913744620100 -2.195281454700
C    2.587066255800  4.393174146800 -1.600156504500
C    3.300361415300  3.583968173900 -0.703900846700
C    2.893356559000  2.303974691000 -0.447252073400
C   -3.301063454000 -1.942846806900  0.830439984600
C   -3.289987416900 -2.352477763100 -0.629037651600
C   -2.899885687000 -3.608566388000 -1.022967390300
C   -2.848883329800 -3.976083662000 -2.374948800000
C   -3.185246165300 -3.079134419700 -3.345602626200
C   -3.602812689800 -1.778497968500 -2.995745610400
C   -3.665903561100 -1.404632841100 -1.624652664800
C   -4.103205939500 -0.095620974400 -1.324737349400
C   -4.442545499400  0.790705316600 -2.310162474500
C   -4.366644757800  0.418674889000 -3.659947484000
C   -3.957452417200 -0.842177315000 -3.990678211400
C   -3.319820139600 -3.124364254200  1.803654686800
C   -1.218268959500  0.954884165300  2.037819416900
C   -1.503665505500  1.724618102300  0.938249468800
C   -0.842571740300  2.932624918300  0.690020006500
C    0.138811877000  3.359510995400  1.535953971900
C   -0.216073826700  1.387568213100  2.950119447300
C    0.481255075000  2.597300683400  2.671129194900
C    1.502070427200  3.029594417200  3.544546820900
C    1.830115641700  2.311649695500  4.658555927400
C    1.137978096200  1.127118805200  4.947327075000
C    0.144125467500  0.682661679900  4.120257535200
H   -3.931444993700  0.780019004200  2.038612554700
H   -3.229774161100  0.836109289600  3.650665054500
H   -4.046743090100 -0.627719363200  3.112699656500
H   -1.597611799500 -0.911632005200  3.045758086900
H    2.019635330900 -2.556894295300  2.609250873500
H    4.415777349300 -2.861511017900  2.047651824800
H    3.412731348200  0.342733479500 -2.341427079300
H    5.729322929000 -0.103165705800 -2.979391095700
H    7.187883646300 -1.471343901500 -1.532627064900
H    6.279777207200 -2.471803432400  0.530222163300
H   -1.616798951000  0.513555471600 -2.526181298100
H   -0.764053692800  2.749281230600 -3.169126786900
H    0.879761312000  4.535974003300 -2.867351878400
H    2.929764037200  5.397757973300 -1.801822292500
H    4.175770911500  3.980638280100 -0.210177696600
H    3.441489625200  1.695966957200  0.256608548800
H   -4.208511471300 -1.357528899200  1.006546037100
H   -2.622076080600 -4.348681000200 -0.290165855700
H   -2.531420657500 -4.975315385200 -2.635563041900
H   -3.137521896800 -3.347580823200 -4.391516709000
H   -4.168499448500  0.219872566300 -0.296470721400
H   -4.769846006400  1.787875148800 -2.051350466800
H   -4.633549637900  1.130571100700 -4.427651015500
H   -3.896748020900 -1.146120882100 -5.026483420400
H   -4.128628253900 -3.807181553700  1.553942820900
H   -3.470867122400 -2.768961428400  2.820484362700
H   -2.370692289000 -3.656541915700  1.772958395100
H   -2.252998298600  1.387654551500  0.238109316300
H   -1.116554601600  3.517417717900 -0.175143621800
H    0.667034119900  4.283697081000  1.349959790700
H    2.021967349500  3.947825943400  3.308276831600
H    2.614954516000  2.648118891200  5.320722057300
H    1.395743474700  0.564285939400  5.833472072600
H   -0.366432914600 -0.233412640500  4.374278729500
