82
-125.29245072
C   -2.404857390900  2.358897615700 -0.165349608900
C   -2.192346352900  1.234080117300 -1.183736985900
N   -1.288235994400  0.219986989000 -0.634028731000
P    0.226179801300  0.317486848000 -1.382082663700
O    0.890485669800 -1.014838825100 -0.675188807600
C    2.230547278400 -1.156862550300 -1.005723749600
C    3.180231222700 -0.427664407200 -0.324334307300
C    2.577720920800 -2.045533179000 -2.035264551100
C    3.886032063800 -2.197580764400 -2.391592700400
C    4.890751732500 -1.417470251300 -1.780494001200
C    4.538645138200 -0.506066687200 -0.749089775500
C    5.545211071300  0.333320257500 -0.224745823100
C    6.837963174600  0.238799687100 -0.660599396600
C    7.193596701700 -0.698349625200 -1.641868947200
C    6.237006269800 -1.502841428100 -2.194155561800
O    1.067461475500  1.507008555900 -0.539458558400
C    1.771933610400  1.382756849300  0.626057481400
C    1.497355138600  2.327606128200  1.634615369500
C    2.179234350600  2.301718058700  2.814843107700
C    2.771305656700  0.441726854200  0.795957128400
C    3.399878402100  0.325348041200  2.069574794100
C    3.113075647200  1.278070392300  3.082080403000
C    3.755021359100  1.171587349200  4.333300318100
C    4.621311133900  0.146652917600  4.592398312100
C    4.869778172300 -0.823234979700  3.610107416800
C    4.276272521000 -0.737073995800  2.381042245500
C   -1.739835095000 -0.951937669700  0.117928913900
C   -2.844140681900 -0.637495996700  1.105983435400
C   -4.129529463300 -1.070240574200  0.894890512700
C   -5.156278547000 -0.820647173600  1.816900631200
C   -4.897421528800 -0.138462134200  2.969049947800
C   -3.589468037200  0.309488771700  3.247839272400
C   -2.545247559300  0.060684281800  2.312965966900
C   -1.249777922500  0.516430153800  2.641854999900
C   -1.000163086300  1.163186592900  3.820204662500
C   -2.034107432000  1.410587228200  4.733836802500
C   -3.302970012400  0.994600806900  4.447547572200
C   -2.072878241600 -2.126738952500 -0.809049293600
C   -3.477061523800  0.709392934900 -1.793935990500
C   -4.691873744100  0.959156290800 -1.205419799900
C   -5.895322113700  0.512624697100 -1.770205447700
C   -5.889422208100 -0.191148768000 -2.938430463500
C   -3.448213550500 -0.003754933400 -3.029405880800
C   -4.671215923900 -0.462720306400 -3.595099830500
C   -4.651787172400 -1.181372812600 -4.809651386400
C   -3.477740003700 -1.440685225200 -5.457265317600
C   -2.270104639600 -0.983419077500 -4.911071303400
C   -2.257436850100 -0.286191918400 -3.734972601800
H   -1.430229470000  2.746849538500  0.121626256400
H   -2.904074061800  2.007445783300  0.731979565800
H   -2.982751767400  3.164697693500 -0.612416334000
H   -1.616255971800  1.695890211100 -2.005008973700
H    1.787826733400 -2.597411437000 -2.522595302100
H    4.164027771100 -2.893286479700 -3.169360277000
H    5.281198866600  1.067806674300  0.520590967100
H    7.593768338900  0.893413373800 -0.251836761200
H    8.221404203800 -0.766530437000 -1.966772590500
H    6.492828212000 -2.210979822200 -2.969307965000
H    0.745467499900  3.076263037200  1.435068911200
H    1.992969405000  3.052462055300  3.569446019200
H    3.536397728200  1.912526553200  5.089373756400
H    5.106674390400  0.068620489400  5.554234914500
H    5.532481445500 -1.647091163200  3.832042770200
H    4.464628678300 -1.497505507800  1.638132447900
H   -0.871013620600 -1.272558631400  0.705707533400
H   -4.382065406500 -1.617684687800  0.002035843300
H   -6.152448785000 -1.178155495400  1.600471158600
H   -5.680570417300  0.060522019500  3.686824895100
H   -0.437039426900  0.360651609900  1.950183740000
H    0.003406032700  1.488471942300  4.049411121300
H   -1.819763523000  1.928532456000  5.657476336200
H   -4.112691559500  1.178245503200  5.140046909900
H   -2.882477155100 -1.893074108600 -1.492838155200
H   -2.338563233700 -3.000279364500 -0.217388695900
H   -1.191021661800 -2.362688131500 -1.400161491300
H   -4.746234748900  1.507239093100 -0.279488294000
H   -6.824348703200  0.733518873600 -1.265216987000
H   -6.810000049200 -0.544209434800 -3.380956780100
H   -5.592538411000 -1.522887130900 -5.218381548700
H   -3.470978643600 -1.992074230100 -6.386220057700
H   -1.342273728800 -1.184713851300 -5.426791367900
H   -1.311404750700  0.045189570500 -3.336277772600
