82
-125.29571261
C   -1.598056270500  3.079114788400  1.142473000100
C   -1.553459527400  2.024901175300  0.032531514800
N   -0.844429614300  0.808329683400  0.476198351800
P    0.089524888400  0.191393649500 -0.825062221700
O    0.901616107000 -0.935164028400  0.064427194400
C    2.083721747100 -1.370995263600 -0.498662188600
C    3.219826862600 -0.601138836900 -0.363844930100
C    2.106997223800 -2.606716898600 -1.164684060000
C    3.272892362800 -3.067127017700 -1.705185349500
C    4.447510018300 -2.287329489000 -1.652134334800
C    4.422150544400 -1.028749187600 -0.992626821900
C    5.585153917400 -0.228767764100 -1.027110060400
C    6.725368267600 -0.672324017800 -1.637475950700
C    6.763564797600 -1.936071668900 -2.246023232900
C    5.645327370400 -2.721280230000 -2.258894758900
O    1.266080999400  1.364710133900 -0.935383732700
C    2.182498398200  1.600117902000  0.063930663000
C    2.153216652300  2.857954946000  0.691354887100
C    3.037482452300  3.154703737500  1.686778507100
C    3.137580491500  0.660721517500  0.400112858700
C    4.007972928100  0.922064178600  1.495559653600
C    3.962358513900  2.189092939100  2.136017280600
C    4.836565672100  2.449962017000  3.212183546600
C    5.701248588200  1.492088956100  3.661785196400
C    5.715504255600  0.224500574300  3.060456350900
C    4.891352979800 -0.054538852200  2.005671575600
C   -1.569360626600  0.007529656300  1.456779535400
C   -2.631543450700 -0.929852438200  0.912805987100
C   -2.468847908100 -1.540787297600 -0.300894049600
C   -3.430042450100 -2.407144134000 -0.836141896400
C   -4.570629179400 -2.672579443600 -0.137432106300
C   -4.779007595000 -2.091847351600  1.130718990100
C   -3.800287004900 -1.215842327000  1.677639523800
C   -4.051876949500 -0.678110286300  2.959954305400
C   -5.194561045800 -0.975305485500  3.650450453000
C   -6.158443407900 -1.831304468600  3.100406267700
C   -5.949268033200 -2.376710217400  1.866017011300
C   -0.627279551600 -0.775582361000  2.380508812100
C   -2.905105135100  1.695754396200 -0.567873695000
C   -4.026501606100  1.644612826500  0.223148513500
C   -5.264300088600  1.207912603300 -0.265532514200
C   -5.381274614200  0.801517013200 -1.561211903400
C   -3.020498960200  1.345355887900 -1.945917987300
C   -4.272749549900  0.869719126100 -2.429394148500
C   -4.399840795700  0.478812262100 -3.779193133700
C   -3.346007335000  0.569172429800 -4.642722594700
C   -2.123733456100  1.080902783100 -4.187257896500
C   -1.967996600100  1.459703172300 -2.882009191700
H   -1.993286629600  4.007113142500  0.735199964000
H   -0.589827232500  3.251680172900  1.511077700700
H   -2.215135726500  2.789960042300  1.987455827800
H   -0.917280053800  2.451264980600 -0.749041328900
H    1.189239067000 -3.172910121600 -1.225685526600
H    3.303425817200 -4.024900099800 -2.203540553200
H    5.561918039500  0.749545627800 -0.571545796900
H    7.605599501300 -0.046421863700 -1.657149705600
H    7.676267502800 -2.274973883600 -2.713837200200
H    5.655618596000 -3.686815135700 -2.744256206700
H    1.425892298700  3.578715245900  0.349178158300
H    3.024255794200  4.126827607700  2.157989709400
H    4.800259216600  3.423346376200  3.680616083300
H    6.366748209200  1.698256830000  4.487295254400
H    6.381961973600 -0.536220388400  3.440280061600
H    4.900932467000 -1.037301405100  1.559043147000
H   -2.067161714800  0.752196840600  2.082279361600
H   -1.578923544600 -1.343852417900 -0.883045552500
H   -3.257050411900 -2.852362093600 -1.805107985100
H   -5.326751939700 -3.331880532800 -0.539215063000
H   -3.329866022200 -0.022048192600  3.420862741200
H   -5.359255903600 -0.549641355400  4.630160217000
H   -7.056728984100 -2.054804832000  3.657461680900
H   -6.679904359300 -3.042896604800  1.428844936500
H   -1.170424223400 -1.085284653100  3.271085650800
H    0.210206334800 -0.146957598400  2.674415233400
H   -0.243970547200 -1.664205833700  1.889753848700
H   -3.977828060300  1.931429359300  1.261396130700
H   -6.113049317900  1.179169761500  0.401921130400
H   -6.321517687800  0.432115629900 -1.944771001400
H   -5.358175893300  0.109575155500 -4.116715824000
H   -3.449804719500  0.266692603700 -5.674612096700
H   -1.298029696000  1.182052287700 -4.876571660200
H   -1.015200934100  1.869204827400 -2.584046417400
