82
-125.29460315
C   -0.862342997100  2.691546838100  2.244077429000
C   -1.456423444200  1.927525556000  1.053333928000
N   -1.159318426300  0.498138333500  1.142962304700
P   -0.370439965500 -0.294443205700 -0.148174116600
O    0.759357798700 -1.038355288400  0.826252497000
C    1.800647460900 -1.604966865500  0.126327654300
C    2.848556725300 -0.804874045800 -0.278487602000
C    1.776734563300 -2.980391986100 -0.156412085300
C    2.806453138500 -3.552515067500 -0.845296181500
C    3.870637333700 -2.765964838400 -1.335619510500
C    3.885876488800 -1.369594307400 -1.072847648900
C    4.906937680600 -0.588842071100 -1.657330480100
C    5.888636740500 -1.166563040400 -2.413764829100
C    5.901644978300 -2.552965579100 -2.628047941400
C    4.907832951100 -3.332419692700 -2.106379816700
O    0.597042095100  0.898397492600 -0.777768882100
C    1.740092496600  1.410814100400 -0.198414947000
C    1.786216362100  2.804233075700 -0.000781363200
C    2.886384402300  3.393763050000  0.549000715000
C    2.838048315600  0.623913349800  0.091580674500
C    3.951408901100  1.210790611300  0.759913818100
C    3.978621291300  2.612971307500  0.979540034300
C    5.092243011900  3.191136002900  1.624243878600
C    6.127304378000  2.415564556200  2.065178115200
C    6.080993119400  1.024044119300  1.892579337600
C    5.022269888200  0.436102420700  1.257452343900
C   -2.038493405600 -0.369321492900  1.934896973100
C   -2.089395867200 -1.754324580100  1.315355709800
C   -1.339412499100 -2.783983655600  1.831476295800
C   -1.376881767900 -4.075269251300  1.286845676100
C   -2.163949921400 -4.345487402800  0.205552889500
C   -2.961732151100 -3.329654997000 -0.359421680200
C   -2.943831095400 -2.023152504200  0.204367812100
C   -3.790465263000 -1.054146434500 -0.373028929200
C   -4.582331131100 -1.342441725400 -1.449731370800
C   -4.578246161300 -2.625080977200 -2.014080468900
C   -3.786634271900 -3.597393754400 -1.472362193300
C   -1.578931067100 -0.408068747500  3.397575172200
C   -2.917639320700  2.252185213500  0.809411460800
C   -3.763750361400  2.540476195600  1.852479597700
C   -5.106820026700  2.885876538700  1.644816013000
C   -5.607546896600  2.959541692800  0.377972015800
C   -3.431529447000  2.279149482200 -0.521839064200
C   -4.787921049100  2.658523062900 -0.729704033700
C   -5.302839547800  2.713749747800 -2.042475399600
C   -4.526400063300  2.388325269800 -3.117751156400
C   -3.200709340300  1.978225980500 -2.917221069200
C   -2.669436185400  1.925469815300 -1.658609949200
H   -1.004501702200  3.760282101400  2.096017761500
H    0.203807390200  2.482615957300  2.299441875800
H   -1.308961380900  2.409497057500  3.190519484300
H   -0.908165270800  2.282653782400  0.178376405500
H    0.929089844800 -3.554077805700  0.185108382100
H    2.804021245600 -4.613102981700 -1.050192597100
H    4.899817385500  0.480414156800 -1.509890151000
H    6.660404481900 -0.553248456100 -2.855679263900
H    6.691210604100 -2.993867031300 -3.218780556600
H    4.892261281700 -4.398128224400 -2.285379442000
H    0.938979617600  3.396450289300 -0.312531794000
H    2.920893548500  4.465060691900  0.682296700600
H    5.103503879500  4.261851710900  1.770815686000
H    6.976928563400  2.863951367400  2.559001526700
H    6.889022000600  0.414650246400  2.270465085700
H    4.991047779600 -0.636817615300  1.143119671100
H   -3.056020593800  0.044278178100  1.924334424900
H   -0.685934664600 -2.612397805800  2.670914262200
H   -0.771460397200 -4.851290310300  1.734577827800
H   -2.191040170200 -5.334271711000 -0.229953929600
H   -3.821313740900 -0.060453899900  0.038936428100
H   -5.215298491800 -0.573938140700 -1.868858808100
H   -5.205520990600 -2.837224955600 -2.867601015600
H   -3.779397217900 -4.595552637800 -1.887526680200
H   -1.824016172100  0.525284532200  3.895304951800
H   -0.503018093000 -0.550506815700  3.451829458100
H   -2.084777398900 -1.212894942500  3.926300758200
H   -3.401582489300  2.513259763100  2.868163155100
H   -5.732879267000  3.101519409100  2.498493904000
H   -6.636088787000  3.241318205500  0.203305064700
H   -6.332877368600  3.013524667900 -2.177014373500
H   -4.927607196300  2.431296299000 -4.119948271100
H   -2.595852569300  1.695711387500 -3.766532974200
H   -1.655160286100  1.575122429000 -1.543063764500
