82
-125.29594048
C   -0.528489007100  2.293197477200  1.200580773300
C   -1.470438096500  1.544940858000  0.250700994900
N   -0.758823049200  0.651704432300 -0.659588717300
P    0.089060764600 -0.763858733400 -0.190509543000
O    0.987658390300 -0.029366561400  0.981868829500
C    2.100269238000 -0.746581699100  1.371905409400
C    3.243658786100 -0.685636620300  0.604048006400
C    2.048193899000 -1.497753246300  2.556933741000
C    3.145639030200 -2.197386134000  2.968406181400
C    4.317885025600 -2.222871818600  2.183565851900
C    4.366867339900 -1.476965697900  0.974944262400
C    5.516218103100 -1.590020449100  0.162639483300
C    6.578717434400 -2.358032408000  0.550877707000
C    6.548928119000 -3.053950961900  1.768835200600
C    5.438162306300 -2.992752156100  2.562318378200
O    1.230339247100 -0.864600491300 -1.399499326200
C    2.272151080900  0.018928840400 -1.560833725100
C    2.347430881300  0.712000755100 -2.782501213700
C    3.355540867600  1.601093815800 -3.014161371800
C    3.253400515200  0.169693050200 -0.600201141000
C    4.256770261400  1.162304897500 -0.788633182700
C    4.311525755300  1.877259588200 -2.014470627900
C    5.317669017700  2.847934492100 -2.203195422600
C    6.217411472500  3.127290730600 -1.213297959800
C    6.136432701600  2.455290703300  0.015607150200
C    5.182182229900  1.498296662100  0.223801546000
C   -1.436498604000  0.458880501700 -1.955549232800
C   -2.890687691900  0.065874819300 -1.784011998300
C   -3.883508315700  1.013369794000 -1.829100951200
C   -5.220944212700  0.704998651100 -1.548270809400
C   -5.570636220500 -0.565298669200 -1.199896045700
C   -4.600176553300 -1.587598596300 -1.179578465800
C   -3.247099840200 -1.286468650800 -1.503787427500
C   -2.336568664900 -2.364972439700 -1.548710868100
C   -2.719610485100 -3.640830606200 -1.237761992200
C   -4.042500891100 -3.919889749700 -0.869885480100
C   -4.963231363600 -2.911508936800 -0.855044027600
C   -1.221942171600  1.682655569300 -2.852232903800
C   -2.598419106700  0.919907089100  1.050533492900
C   -2.471372269600 -0.347804975500  1.550770740700
C   -3.494575519400 -0.971682471700  2.274961455900
C   -4.663789710400 -0.309285001600  2.506834850300
C   -3.789134657300  1.653089453000  1.325950193500
C   -4.834438483100  1.013480693300  2.048858395300
C   -6.030437478100  1.714384587300  2.312282976600
C   -6.198159886100  3.005348022800  1.900195855400
C   -5.163644432800  3.650242142000  1.208666265300
C   -3.996786170800  2.993523657300  0.930568616300
H   -0.197848120800  1.653271985600  2.012162434300
H   -1.054303888600  3.144550846600  1.628788732700
H    0.343220382600  2.648580784000  0.655979003000
H   -1.906378565900  2.295761271200 -0.412148222800
H    1.129450789300 -1.496285532000  3.124830458400
H    3.120150794400 -2.762710243400  3.888382709600
H    5.544241576800 -1.068418548700 -0.781928323900
H    7.448927861600 -2.435861347900 -0.084434898300
H    7.401816762900 -3.646903894600  2.064988584600
H    5.393696801700 -3.543159636600  3.491306307500
H    1.599861827400  0.500127280100 -3.532174685300
H    3.420392892100  2.119693374100 -3.959682803300
H    5.355126849100  3.373923266800 -3.146658279000
H    6.984601584000  3.872644025600 -1.364056265000
H    6.833458730500  2.702272370200  0.803185449300
H    5.120474707300  0.997218244900  1.178031282400
H   -0.908145891300 -0.365925310600 -2.444739428600
H   -3.651965601900  2.037387646700 -2.074504859000
H   -5.961504901300  1.490140016300 -1.589406544300
H   -6.591900759800 -0.810620694400 -0.946108207800
H   -1.313871378200 -2.198734402800 -1.850653312400
H   -1.997713374600 -4.443361484300 -1.282514741100
H   -4.327327606200 -4.931236833500 -0.618580386200
H   -5.994409968900 -3.111201719300 -0.599321438400
H   -1.639060228500  2.592951145300 -2.431923803400
H   -1.679099717900  1.506319077100 -3.823221903500
H   -0.155131801600  1.843922886900 -2.983272737700
H   -1.559361960400 -0.900984996200  1.373512396600
H   -3.347450217800 -1.979353249400  2.635249890700
H   -5.470021943900 -0.780763127600  3.050436487200
H   -6.813541990900  1.205361394900  2.856717872900
H   -7.116247085400  3.535861681000  2.107256000700
H   -5.292987829000  4.676772327800  0.896111254100
H   -3.218729975600  3.527808601700  0.407963416700
