82
-125.29231256
C   -3.031847478600 -2.000764499100 -1.588266539900
C   -2.718091807900 -0.559056825200 -1.191018205500
N   -1.592383174500 -0.523616148200 -0.234075096200
P   -0.157402977900 -0.981465978300 -0.984346657900
O    0.653294578200 -1.488516261600  0.368208300500
C    1.970987069700 -1.822943342300  0.123107424700
C    2.928396523900 -0.835228240900  0.018269836400
C    2.301987979400 -3.182992453600  0.002602981500
C    3.592358383000 -3.555786102900 -0.235439836100
C    4.594524551900 -2.581996741700 -0.433095430200
C    4.260396748000 -1.205287227600 -0.328504359900
C    5.256736112200 -0.250516429500 -0.626746875400
C    6.526517536000 -0.637137950800 -0.955819728600
C    6.868242797700 -1.996714517900 -1.005168647900
C    5.918178500900 -2.947172013400 -0.757240460600
O    0.713415063000  0.416626938400 -1.305981565200
C    1.491422738100  1.134022801200 -0.443709954800
C    1.194906609500  2.507430918500 -0.323594873600
C    1.924400456400  3.303735475400  0.507319141400
C    2.554121550700  0.574693006000  0.243360465100
C    3.257304600100  1.374475413000  1.191472346500
C    2.949627110000  2.755919024200  1.308143480400
C    3.660659472900  3.547109662600  2.234074024800
C    4.615557062900  2.995781386500  3.041579006500
C    4.884022735200  1.621313444400  2.966095167600
C    4.222923908200  0.831011023400  2.066834101700
C   -1.849514699800  0.287210956100  0.958831689100
C   -3.116744381500 -0.161932783200  1.667326871400
C   -4.036278218700  0.797925219400  2.015248482100
C   -5.220205177800  0.480121892100  2.693861084200
C   -5.484683659300 -0.815611361900  3.031316406600
C   -4.560941517000 -1.835302464400  2.721832443100
C   -3.353844740800 -1.514544735000  2.038678278900
C   -2.444698156300 -2.564103540700  1.775731450600
C   -2.714677321100 -3.848715782300  2.158663040900
C   -3.910929689000 -4.162130056200  2.820572479300
C   -4.812748554200 -3.173623472300  3.093718683600
C   -0.726139773300  0.321422060500  1.995959298300
C   -2.416189272200  0.343694468000 -2.372637440200
C   -1.705675154000 -0.147022127500 -3.442094333000
C   -1.278402884300  0.676659738600 -4.490943630800
C   -1.554053404900  2.012737067900 -4.469115344400
C   -2.781831975700  1.721232043900 -2.366367588100
C   -2.317704427100  2.561566411500 -3.419427775400
C   -2.633338088200  3.937620418000 -3.407052032000
C   -3.402124212100  4.477859794300 -2.416471600400
C   -3.905915486400  3.648602565900 -1.404566614100
C   -3.605746847600  2.314441759200 -1.382498473000
H   -2.134328223700 -2.522456448500 -1.909789446000
H   -3.764697899200 -2.014819633600 -2.391640098100
H   -3.437970497300 -2.529346370800 -0.729052879900
H   -3.596858422000 -0.184813123200 -0.661343913500
H    1.511216671300 -3.910047532900  0.111799294800
H    3.856811491300 -4.600503069600 -0.306585695200
H    5.001939919500  0.798135407600 -0.604872620100
H    7.274701039300  0.107716003400 -1.184744001800
H    7.879056083800 -2.284039852900 -1.254987309000
H    6.161739907800 -3.998350413200 -0.817258807600
H    0.379124305700  2.897604695800 -0.914136312300
H    1.706312627600  4.358955849000  0.584033484200
H    3.424670018800  4.599876338700  2.298638484100
H    5.155211967000  3.607511392300  3.749609678800
H    5.616648473300  1.185536090700  3.629739172100
H    4.428455133000 -0.227931208800  2.030058906500
H   -2.004029564200  1.330017627700  0.631320698300
H   -3.844716480800  1.833183972100  1.766354500600
H   -5.916549039900  1.268537666500  2.940494482700
H   -6.396716173600 -1.078159221300  3.548284100800
H   -1.525760461600 -2.345416289900  1.259153975200
H   -2.002674514500 -4.634539536100  1.950058343000
H   -4.110220788700 -5.183397144200  3.112049199400
H   -5.737340752900 -3.398720086900  3.606979673300
H    0.183066497500  0.743853652800  1.579159989100
H   -0.512634983200 -0.668213243300  2.386930462800
H   -1.048084538500  0.956846477000  2.820298939900
H   -1.459864414400 -1.195089457800 -3.492289874500
H   -0.715105413700  0.243566256600 -5.304523101200
H   -1.204548852400  2.666346482300 -5.255831380200
H   -2.255818947400  4.556515509400 -4.209202321800
H   -3.639141179500  5.531900551000 -2.413689594400
H   -4.543251899400  4.070834915100 -0.640499497400
H   -4.033121088500  1.704246902600 -0.602717674600
