82
-125.29552999
C   -0.224214403900  1.654930427700  0.842188107200
C   -1.318358423600  0.787680827600  0.210868676800
N   -1.071643672200 -0.657935713600  0.307034787600
P    0.365746883700 -1.430363816400 -0.105628483400
O    1.294090412200 -0.780023517800  1.114668123700
C    2.605361930800 -1.202400340200  1.063214096300
C    3.479459607500 -0.644211771700  0.153067517900
C    3.014930034700 -2.212751461300  1.950344475400
C    4.296283352700 -2.677812251600  1.916613965700
C    5.202419052500 -2.208440502700  0.941313812100
C    4.788522590500 -1.198143402100  0.032883409000
C    5.677046085400 -0.821813554100 -0.997563585800
C    6.925926107500 -1.371945805200 -1.087109018400
C    7.353569558700 -2.326881841800 -0.153207597400
C    6.504013534900 -2.741488453200  0.833725503100
O    1.004419170000 -0.576094098200 -1.397949231900
C    1.890226488800  0.462161271500 -1.419912657000
C    1.573959711800  1.502083467900 -2.320439469100
C    2.382813392600  2.590700279100 -2.440556625700
C    3.056965520100  0.499047747500 -0.677966550300
C    3.847025818800  1.688552129900 -0.708396907400
C    3.518213475300  2.731007028100 -1.613993155700
C    4.318729859200  3.890984743100 -1.657073023400
C    5.383044226800  4.041220817800 -0.812933681500
C    5.674141464100  3.040354755200  0.124897064800
C    4.927141911700  1.895786257600  0.177183495200
C   -2.284418351500 -1.466202129300  0.145151124100
C   -2.967625437300 -1.223476311100 -1.186296467500
C   -2.196481581500 -1.223910120400 -2.320350326700
C   -2.743169736500 -0.987000676700 -3.587424618400
C   -4.081849198500 -0.750399425700 -3.715255570600
C   -4.921417722900 -0.760871069700 -2.581989018000
C   -4.369363150700 -1.008490739700 -1.292722311600
C   -5.257521609000 -1.033331122000 -0.193886554200
C   -6.597079068400 -0.814254502800 -0.354819621900
C   -7.132173992700 -0.555971378800 -1.624877901500
C   -6.308096745200 -0.532188121500 -2.713141813200
C   -2.013003802000 -2.958645773000  0.319198506600
C   -2.637362631500  1.195526456600  0.836507483800
C   -3.530412048700  1.898182979400  0.067990086700
C   -4.733922543000  2.387087926200  0.593888320700
C   -5.041506212300  2.175191232900  1.906113205000
C   -2.945852540900  0.941441422600  2.203040955100
C   -4.162438288500  1.449378915700  2.736953958800
C   -4.476388363600  1.209957912300  4.092287230000
C   -3.637402376200  0.488641494800  4.893260514000
C   -2.449789972400 -0.037354187700  4.363625266600
C   -2.113858579800  0.180521895100  3.056261759400
H    0.714543905500  1.566789252700  0.305664388800
H   -0.057067855300  1.390896248400  1.881222141300
H   -0.542545189200  2.695714616200  0.794414294100
H   -1.372082746200  1.058485485800 -0.857679388000
H    2.289159149600 -2.594690663600  2.652662289400
H    4.623177729300 -3.436280436000  2.612548844600
H    5.355042057900 -0.098237042800 -1.730933539900
H    7.589936625000 -1.074323633700 -1.885557008600
H    8.347946525100 -2.741481358300 -0.230820912700
H    6.810491894100 -3.497004202300  1.543089587500
H    0.674941718600  1.397090356100 -2.909633349200
H    2.146907566500  3.373121748500 -3.146819578600
H    4.063255453700  4.665835934300 -2.365960918200
H    5.991635992200  4.932825174200 -0.849939805700
H    6.493294726400  3.180243031400  0.815189131300
H    5.153544432500  1.142879113800  0.916555708700
H   -2.951730848000 -1.166459951400  0.955992749400
H   -1.132572168300 -1.402203865700 -2.234223840100
H   -2.097031272500 -0.990868046200 -4.453628586100
H   -4.519556479900 -0.558023143800 -4.684651389000
H   -4.882558227700 -1.231071833300  0.798132562200
H   -7.253045900600 -0.838594619400  0.503344434700
H   -8.192726197700 -0.381135544100 -1.733377204300
H   -6.705727812600 -0.340996930800 -3.700195184800
H   -2.960863069700 -3.479375806600  0.441221822000
H   -1.401454218100 -3.123523600800  1.204279048900
H   -1.502651801200 -3.371911996100 -0.546985311700
H   -3.305139859900  2.086089581900 -0.972941418400
H   -5.408299423800  2.931798428700 -0.050478047400
H   -5.962127692500  2.553110491000  2.327397022700
H   -5.402133146900  1.608621386700  4.483229484400
H   -3.885173142500  0.311097245000  5.929891616700
H   -1.799422948000 -0.622829866500  4.997822615400
H   -1.210095034900 -0.253369711200  2.659312304500
