82
-125.29312166
C   -3.343024614400 -2.092583864200  0.944117850700
C   -2.478403499800 -0.948528503100  1.481756649100
N   -1.428229259800 -0.559103997200  0.533882541000
P    0.056617826500 -1.258391647900  0.882649608600
O    0.963635315600  0.123482188800  1.191879786200
C    2.289240546500 -0.161777560500  1.435295740100
C    3.143902748000 -0.375664618800  0.374694438600
C    2.735286606700 -0.238617699200  2.765324230300
C    4.038633129200 -0.539577283800  3.031857226400
C    4.933895124200 -0.846372418200  1.984403589300
C    4.481875918500 -0.786508173400  0.639089782700
C    5.364801925000 -1.195115832600 -0.383739849300
C    6.642047012400 -1.588864344700 -0.094462373500
C    7.103814410200 -1.595764558800  1.230036332800
C    6.263015569800 -1.239578863800  2.246887985500
O    0.717948620300 -1.621054621400 -0.596559656100
C    1.487260878000 -0.829682310600 -1.419076513200
C    1.081429956900 -0.760484190700 -2.768166825400
C    1.785185635300 -0.020272094300 -3.670053651000
C    2.640051882800 -0.194727397700 -0.998531350700
C    3.323332019700  0.667369088300 -1.907619378100
C    2.901083680700  0.739193735800 -3.260459207200
C    3.595098129500  1.574342230000 -4.160304025800
C    4.645818664400  2.339724674800 -3.738376887700
C    5.030520387700  2.313234123500 -2.390048996100
C    4.387061797600  1.500480918000 -1.497702346100
C   -1.622393850600  0.411660172300 -0.541155621700
C   -2.935779480100  0.263386725500 -1.288816461300
C   -3.886672038800  1.252665892900 -1.251573284600
C   -5.064264039900  1.179766025400 -2.010154317700
C   -5.291647448100  0.115368144900 -2.831846843200
C   -4.351762040500 -0.933516637600 -2.905440056700
C   -3.167148585400 -0.873597376100 -2.119585757100
C   -2.278692180600 -1.969387307600 -2.192662583700
C   -2.524733009000 -3.036378385600 -3.011941618700
C   -3.679496893400 -3.075040442100 -3.806152784000
C   -4.575572717200 -2.046167747600 -3.744482545800
C   -1.358059843300  1.843663373100 -0.059371633900
C   -3.277080553200  0.222048417100  2.015428966700
C   -4.577108064900  0.428807684200  1.627092422500
C   -5.339263466000  1.492857494000  2.130737501500
C   -4.800412173900  2.357971271800  3.037200313900
C   -2.694893646100  1.107285365200  2.970645816700
C   -3.472220381900  2.185241882200  3.479568802100
C   -2.904639071400  3.069650537600  4.421393727600
C   -1.619056176700  2.908551619600  4.852870429300
C   -0.848592768400  1.847466947400  4.356635604800
C   -1.371757002600  0.972784471900  3.445330064400
H   -4.035713991200 -2.418426488600  1.716863477000
H   -2.692663965700 -2.925384776700  0.683573648900
H   -3.901918866200 -1.811945326300  0.058479922600
H   -1.933633192600 -1.379172266000  2.334584134100
H    2.022527777700 -0.051511589900  3.554063509700
H    4.393793884000 -0.579870932700  4.051101582100
H    5.015768514400 -1.205918972400 -1.405107351600
H    7.302760490100 -1.902569125100 -0.889457163200
H    8.119309950000 -1.898583475200  1.439246739800
H    6.598706551400 -1.265455449300  3.273816200100
H    0.207339012700 -1.317931951000 -3.068609272500
H    1.477461138000  0.012333918600 -4.704847991900
H    3.269390561200  1.603500919900 -5.190395705400
H    5.173209828500  2.978109955200 -4.431946742900
H    5.839694020400  2.945960944900 -2.055470919200
H    4.684121202000  1.503020469800 -0.460067007700
H   -0.830204798000  0.193686310400 -1.271317724700
H   -3.747419976800  2.121893310600 -0.630643048400
H   -5.781541740200  1.984783520700 -1.940793943300
H   -6.187332185600  0.057019516000 -3.433840957800
H   -1.405382357300 -1.982576592200 -1.563474030400
H   -1.828000473000 -3.862189015600 -3.044737296200
H   -3.857971946200 -3.922874679400 -4.451657019900
H   -5.479601598100 -2.067822737100 -4.337117793000
H   -0.365176238600  1.890042452900  0.380032896000
H   -2.071709216900  2.154425319600  0.697518717200
H   -1.397197244800  2.531134918400 -0.901998156900
H   -5.044425255000 -0.230594385400  0.914614986500
H   -6.357343600200  1.615129794500  1.790596170900
H   -5.378010577200  3.181801477800  3.431914228200
H   -3.512806621800  3.881832289700  4.794722049500
H   -1.190337797200  3.590444302900  5.572990151600
H    0.168319483800  1.727394695600  4.701771061500
H   -0.753452635000  0.173189487800  3.069995434300
