82
-125.29275649
C   -1.319039016000  3.298917438300 -1.481652974100
C   -1.745813409900  1.828116001200 -1.497265928100
N   -0.973200276000  1.018666264300 -0.540078917000
P    0.361577235100  0.382916192000 -1.350862346900
O    0.854383589100 -0.736243143600 -0.245834244100
C    2.055661239000 -1.341746815000 -0.573299328300
C    3.246190983100 -0.705426596500 -0.293883166100
C    2.021598843800 -2.611608968200 -1.171678287100
C    3.185362065900 -3.245160084200 -1.496612624700
C    4.428445146500 -2.606955722600 -1.299830361600
C    4.464469663400 -1.313304278400 -0.714095544900
C    5.709708701700 -0.654985584500 -0.619779194000
C    6.861539696700 -1.265841448800 -1.032261733300
C    6.830428590000 -2.565022347600 -1.560413303100
C    5.637023200000 -3.216322939100 -1.698126123000
O    1.639437427900  1.475995998000 -1.185356143000
C    2.453422662500  1.630783556400 -0.099043478900
C    2.510819770100  2.916938924400  0.475768587400
C    3.303792982200  3.157503506800  1.557846234800
C    3.229535756600  0.598648331400  0.396251577500
C    3.984059985700  0.812128863200  1.585651524500
C    4.034213670700  2.110394893000  2.159002619400
C    4.798421246800  2.322043431100  3.325316306700
C    5.462092252500  1.289553334500  3.926263229200
C    5.371563051000 -0.004118804600  3.391667002200
C    4.651699861600 -0.238186391500  2.252818053300
C   -1.278583771100  1.268139149500  0.870159067500
C   -2.635377012500  0.736377674500  1.306625447200
C   -3.474133544600  1.611218763300  1.953608435400
C   -4.726877974700  1.220844748800  2.440457225100
C   -5.148053472200 -0.066983203200  2.280655827500
C   -4.315599270100 -1.012518180500  1.649428538700
C   -3.037169785600 -0.619077726000  1.163574802100
C   -2.225909926600 -1.610056162700  0.571612741100
C   -2.645524247300 -2.906813788600  0.470573622500
C   -3.911463089700 -3.286722333200  0.936734538300
C   -4.727661644900 -2.354760004300  1.510113629700
C   -0.226693265300  0.779030405400  1.867840601500
C   -3.236800702500  1.604173333500 -1.369982896200
C   -4.078271785800  2.594731895400 -0.931459564700
C   -5.460493884300  2.392065073700 -0.819618499400
C   -6.007642020600  1.188540088000 -1.153632802500
C   -3.788647738200  0.348856700100 -1.755526807300
C   -5.190294205600  0.145025263500 -1.633860647700
C   -5.747797292700 -1.095273158400 -2.008655033100
C   -4.964410645000 -2.097630489300 -2.504231780500
C   -3.584131165000 -1.896922660200 -2.640764043800
C   -3.012176083700 -0.712049396300 -2.269794891100
H   -0.251916531700  3.348293837800 -1.689900168000
H   -1.504598109400  3.778055561300 -0.523979685900
H   -1.850361558300  3.844960015900 -2.257120661700
H   -1.451750151900  1.454123630700 -2.488882935200
H    1.058410519400 -3.062840401100 -1.355956114600
H    3.167435894900 -4.230976920900 -1.937215555000
H    5.744201736900  0.349628526600 -0.226688449500
H    7.804974360300 -0.745212047400 -0.956414802100
H    7.751295565600 -3.036972623400 -1.870101340000
H    5.596443155700 -4.207376730200 -2.127036672500
H    1.915093170900  3.697997918600  0.027173506400
H    3.359758009400  4.148167561100  1.984907153200
H    4.838735885300  3.319311611400  3.740072303600
H    6.044659347200  1.458410349600  4.820045489100
H    5.872736505200 -0.821210499400  3.889919506700
H    4.578049971300 -1.240682883300  1.859472991800
H   -1.322929249300  2.360626357200  0.995461106900
H   -3.169220476500  2.640107041200  2.090308202000
H   -5.352533357100  1.949050827900  2.935994925400
H   -6.116195930800 -0.383354693800  2.642251626700
H   -1.257709363800 -1.334355832600  0.195398777400
H   -2.002125170300 -3.650925928800  0.023380357700
H   -4.232379927100 -4.314089693700  0.839897504800
H   -5.706733580600 -2.631751823900  1.875998474200
H   -0.509806262700  1.131452075400  2.858896898600
H    0.753060476400  1.184461861000  1.629262394100
H   -0.167877592500 -0.304027752600  1.896180052000
H   -3.687385565900  3.559440531400 -0.650989004900
H   -6.083190112100  3.199649936100 -0.462871670800
H   -7.071017969400  1.018282747800 -1.063842103900
H   -6.814386337900 -1.233252708000 -1.898925499400
H   -5.398823106000 -3.043638440900 -2.793245407400
H   -2.969425740200 -2.691279767700 -3.038684275200
H   -1.943297405700 -0.592254706600 -2.368800968000
