82
-125.29580111
C   -1.439571588700  3.321087862900  0.669074109200
C   -1.571516513900  2.125636236200 -0.279284320300
N   -0.822035040500  0.971633174100  0.251267368900
P    0.230982336200  0.364872804600 -0.950333724700
O    0.936790520300 -0.799706078900 -0.025619718500
C    2.118013369500 -1.290026405800 -0.548823192900
C    3.284965536600 -0.582351492400 -0.356746156000
C    2.101667086500 -2.511918003000 -1.239690591700
C    3.261559704400 -3.021664021600 -1.747775677900
C    4.471494600300 -2.304233326400 -1.637088626600
C    4.486403643800 -1.059119755000 -0.952352481000
C    5.688411908500 -0.318777689900 -0.931096064400
C    6.825708677600 -0.808196083800 -1.511203115600
C    6.821850810300 -2.060565781100 -2.143790846500
C    5.666557070700 -2.787118733500 -2.211454927400
O    1.447035383300  1.511807541000 -0.932525927200
C    2.352877139000  1.666520136000  0.088686342600
C    2.396747351700  2.916059879200  0.733547262500
C    3.272700992200  3.142156557200  1.753859816200
C    3.242778298900  0.665974953500  0.431150566000
C    4.096831753900  0.853856265300  1.554763794200
C    4.117125930000  2.110867623000  2.215199997400
C    4.975884818600  2.297795619700  3.318595254200
C    5.762483679600  1.278133770900  3.775795869700
C    5.709621183500  0.021489613800  3.154224298000
C    4.899158642000 -0.186546390800  2.072720322300
C   -1.526770027600  0.221038438500  1.281793134500
C   -2.530290515700 -0.796378565000  0.769219424200
C   -2.301543973700 -1.468496617100 -0.400990367000
C   -3.207758521300 -2.404195249200 -0.914129260000
C   -4.364615039400 -2.669070061200 -0.242255468900
C   -4.643552325400 -2.018863937600  0.977492709900
C   -3.716691200200 -1.077679764200  1.506073158500
C   -4.034955860900 -0.473484624200  2.742881309500
C   -5.193070322500 -0.769076069600  3.407384232200
C   -6.107086734200 -1.688325076700  2.874368187300
C   -5.832553360300 -2.298611484200  1.684121771000
C   -0.577883603000 -0.441107306700  2.288149111600
C   -3.008751291900  1.771311837300 -0.611075875800
C   -4.008156405900  2.003602153200  0.302308189200
C   -5.327544884700  1.585056691300  0.086850282700
C   -5.653348642800  0.911450111800 -1.052289839500
C   -3.343206431700  1.135424693900 -1.842813414100
C   -4.677404625000  0.681184005100 -2.042851514900
C   -5.016065794200  0.012381810300 -3.237804107200
C   -4.090317760000 -0.189663962900 -4.220934656300
C   -2.785934787500  0.292914229900 -4.049931875200
C   -2.426506556700  0.936929120900 -2.898173584400
H   -1.755592331200  3.082710379300  1.680789061300
H   -2.032648666700  4.153754774400  0.298316202600
H   -0.397653933300  3.623374665300  0.715794642300
H   -1.054387151000  2.413981643300 -1.202991856200
H    1.158968004900 -3.028284124200 -1.345227874100
H    3.261564862200 -3.969881052900 -2.264899870400
H    5.698522645200  0.651006949700 -0.457313595300
H    7.736211539400 -0.227371956500 -1.488085804600
H    7.732269589200 -2.436592472400 -2.587027793200
H    5.645269191800 -3.742364529100 -2.716385557500
H    1.733622298700  3.691369312500  0.380604368600
H    3.314045221700  4.108735004000  2.234606959200
H    4.990375363600  3.264556450400  3.801695683900
H    6.416650388600  1.427462121300  4.622327607900
H    6.312900110700 -0.787631223500  3.539609573600
H    4.856341046400 -1.161515253600  1.611156094200
H   -2.080896254000  0.987775452700  1.830978572700
H   -1.403200248100 -1.264604415400 -0.967210907600
H   -2.982558983200 -2.901801211100 -1.846029272000
H   -5.080614623800 -3.379729738300 -0.629791754700
H   -3.352674837800  0.233799948500  3.187723083900
H   -5.409676516000 -0.292547661300  4.352984602000
H   -7.019012676600 -1.908999857600  3.410041975600
H   -6.523823926100 -3.014337720100  1.261390198000
H    0.229077624400  0.243144505600  2.541228390500
H   -0.150992738900 -1.354013168500  1.886131644200
H   -1.128517057500 -0.692052471700  3.192523416200
H   -3.794428667800  2.514056418700  1.227854250300
H   -6.073231892700  1.785367323000  0.842159046800
H   -6.659407300400  0.553743896200 -1.217913204400
H   -6.033065329100 -0.333120976100 -3.359939210700
H   -4.356799456200 -0.703836467600 -5.132939516200
H   -2.059749776600  0.158424343400 -4.838567602000
H   -1.417575837900  1.308846946700 -2.812101713700
