82
-125.29205256
C   -1.079243064500 -0.428465056300  3.514723955900
C   -1.068628452400  0.074857171600  2.062271591500
N   -1.263404829500 -0.982203664600  1.069512885400
P   -0.013646937100 -1.955664893400  0.475519481600
O    1.168543803200 -1.372693684300  1.481095426700
C    2.463279381000 -1.661625065300  1.096824928800
C    3.074983847700 -0.895551066300  0.126404222500
C    3.139606840800 -2.709978603500  1.741392305400
C    4.430726542700 -2.997714752200  1.406090728500
C    5.078362750900 -2.290574038800  0.370957269700
C    4.390026506600 -1.241306667600 -0.295417885100
C    5.024356791600 -0.611166714000 -1.388103460600
C    6.290120306000 -0.964429133800 -1.765888591000
C    6.988128767900 -1.965385149600 -1.073723945100
C    6.389736514200 -2.618835315400 -0.033421659100
O    0.478914268000 -1.220204891400 -0.944820494100
C    1.077346164300  0.009763968400 -1.009347029500
C    0.391794466000  1.029929496900 -1.694668083200
C    0.942774998300  2.271889960300 -1.812607402000
C    2.333559846000  0.231388279000 -0.475349252300
C    2.872855009000  1.548683696400 -0.501286258700
C    2.174495381700  2.574178852700 -1.193562077800
C    2.718202770100  3.875348257800 -1.229237096200
C    3.887252056200  4.166166007000 -0.583932222600
C    4.554700568600  3.165827320400  0.138566713500
C    4.061637681400  1.891040273500  0.179929625900
C   -2.582504356900 -1.547794115700  0.770543336500
C   -2.593589144300 -1.882831341400 -0.711507701300
C   -2.303010834100 -3.155572852100 -1.140466121700
C   -2.245557949000 -3.486392976100 -2.500902900100
C   -2.476890185200 -2.534186939100 -3.449291575800
C   -2.788468959600 -1.213888552600 -3.065939406500
C   -2.854994933100 -0.875036892300 -1.684219607900
C   -3.179475550500  0.460609764300 -1.357957696000
C   -3.413644291800  1.398997896700 -2.325468579500
C   -3.337466907100  1.059819834500 -3.683420131300
C   -3.032165942800 -0.222744816600 -4.040749001300
C   -2.930142102800 -2.761568813000  1.640355586600
C   -1.914281663300  1.307566231300  1.781898025000
C   -1.284650935200  2.296256449200  1.059486969400
C   -1.915519633700  3.493852289700  0.705958095700
C   -3.206306851200  3.717518258600  1.086213643000
C   -3.260993773000  1.526067590300  2.199359340700
C   -3.902176059000  2.747525836300  1.835137394700
C   -5.239012957100  2.981630781800  2.224256428900
C   -5.938858894400  2.060121298800  2.948126874600
C   -5.316904208900  0.859138098600  3.315082636300
C   -4.023293026900  0.604438564100  2.952944645300
H   -0.126767023400 -0.912955484300  3.719441118400
H   -1.858210633400 -1.156653896300  3.707906648900
H   -1.197252654400  0.410983510200  4.196531503100
H   -0.041760203700  0.412515758100  1.885004987800
H    2.613098029400 -3.264159642400  2.504097740700
H    4.963891483100 -3.789341776700  1.911630208800
H    4.491079055500  0.151082079800 -1.935471234200
H    6.758740831500 -0.474087597600 -2.606694444600
H    7.991633969500 -2.223697187400 -1.378609217200
H    6.907711429200 -3.408354793900  0.492176802200
H   -0.571582734200  0.792547195500 -2.118094861700
H    0.423657668100  3.047763643800 -2.356068898900
H    2.182127443000  4.641694520600 -1.771119190200
H    4.296296202300  5.165479033100 -0.613954978100
H    5.463424140200  3.410129837100  0.669270425900
H    4.576299698000  1.131898823100  0.749525414100
H   -3.331667919800 -0.775368405500  0.959933719700
H   -2.112445794700 -3.939947802300 -0.426192223400
H   -2.008485046700 -4.501207153300 -2.785383491000
H   -2.425351483300 -2.772810995400 -4.502191317700
H   -3.235413596600  0.763124684100 -0.326404884800
H   -3.655534077700  2.412500070700 -2.040034991200
H   -3.521111937900  1.812955264500 -4.436028217200
H   -2.970948635200 -0.503275893900 -5.083122780100
H   -2.073839694400 -3.428359192000  1.718601691800
H   -3.772107797900 -3.299005938700  1.210113245500
H   -3.209378100600 -2.452591324800  2.643948052900
H   -0.262496745600  2.148230076700  0.741396641300
H   -1.367253383200  4.230376163100  0.137585274100
H   -3.713862815600  4.635112858700  0.824516067900
H   -5.698885047700  3.915383862900  1.932184729900
H   -6.961761635600  2.247582437000  3.240220338100
H   -5.867582147300  0.128594669400  3.890134538200
H   -3.580249812000 -0.325978116700  3.254607066400
