82
-125.29209434
C   -3.049062265800 -1.772917423300 -2.661871271500
C   -2.749722244900 -0.966103325200 -1.384024325600
N   -1.562484459500 -1.378935023300 -0.623554120700
P   -0.086582616100 -1.345630259200 -1.491101137800
O    0.824698989800 -1.982605801600 -0.258775628900
C    2.186299468300 -1.856055776100 -0.466029554300
C    2.811172570300 -0.659913541700 -0.182216926100
C    2.903119727200 -2.967792206100 -0.936393639700
C    4.250743897300 -2.878112138500 -1.132518276700
C    4.925325025100 -1.655563995700 -0.930584489700
C    4.198506486800 -0.523764901600 -0.472691270000
C    4.875127391700  0.711395408700 -0.372025898200
C    6.209348769200  0.807488264300 -0.655262689800
C    6.937673805800 -0.323432970200 -1.053996684800
C    6.305058717700 -1.526164070700 -1.196629455700
O    0.395098037400  0.237909356200 -1.378597212300
C    0.859315474800  0.860431611800 -0.248232621500
C    0.155020063000  1.993750187500  0.197658456600
C    0.592465808200  2.695992224000  1.281122333300
C    2.019608827600  0.451712175100  0.381728149300
C    2.422043910900  1.106913849500  1.580982778400
C    1.713212923100  2.257067828500  2.018282747000
C    2.130510342200  2.919997913300  3.191641079600
C    3.181194925400  2.449638440300  3.928278745300
C    3.849903690000  1.283981213100  3.526177743400
C    3.481488377500  0.629603231700  2.383218810500
C   -1.775776843500 -2.452677974000  0.357049237000
C   -2.925986491000 -2.106520307300  1.279895495600
C   -4.108392383000 -2.805079559400  1.249921494000
C   -5.173072357900 -2.493820144700  2.108384930500
C   -5.055247365500 -1.476173908200  3.009124464800
C   -3.860761892200 -0.729558297600  3.085118934900
C   -2.780649479400 -1.037402880200  2.211428221500
C   -1.604208913600 -0.264041785000  2.319101582500
C   -1.496914735600  0.738828411500  3.242152553800
C   -2.564258333800  1.038212376300  4.100509476100
C   -3.722875812100  0.319813429200  4.018323752900
C   -1.890577458500 -3.831412323600 -0.298327412900
C   -2.736157603800  0.543044964400 -1.572919584400
C   -3.382206789200  1.268186118900 -0.598040756900
C   -3.484667823600  2.663879661200 -0.641671292300
C   -2.943038158800  3.349847638500 -1.689954664900
C   -2.128097856000  1.240864125500 -2.654391172100
C   -2.253667885300  2.660234206300 -2.708816783200
C   -1.670005050600  3.374216093000 -3.777732089400
C   -0.969877688300  2.731980440800 -4.757654662600
C   -0.818331218300  1.339747985100 -4.696628657300
C   -1.381950868700  0.620299133200 -3.680329015600
H   -3.765192172400 -2.563881881500 -2.447841924400
H   -2.149093873500 -2.236122568000 -3.059766803300
H   -3.485374962900 -1.130035504500 -3.422238575800
H   -3.588099301100 -1.147721991000 -0.701338907200
H    2.362533468700 -3.883475556900 -1.124185096000
H    4.812246140000 -3.735679410200 -1.472714096400
H    4.321346593100  1.590223965700 -0.079002160200
H    6.710069008200  1.761453906300 -0.576708289400
H    7.993763826700 -0.231749838600 -1.261292723800
H    6.849180870800 -2.399127951800 -1.527898757300
H   -0.724748051100  2.288502089600 -0.350520154900
H    0.063867820500  3.580656260600  1.605409170600
H    1.589866546700  3.802731628400  3.503259445700
H    3.492748426600  2.960430764000  4.827669448700
H    4.659578849100  0.900682859300  4.130008409800
H    3.995495088700 -0.273683987200  2.091100170200
H   -0.872203010700 -2.477910827500  0.973671588400
H   -4.244854967100 -3.619220394000  0.556180507200
H   -6.084449285800 -3.070814736200  2.045571266600
H   -5.868355557700 -1.228426975500  3.676603018900
H   -0.775928635500 -0.456209704200  1.656734475100
H   -0.582736766600  1.308916597700  3.310254018000
H   -2.462180330000  1.836567172300  4.821417966900
H   -4.556309903300  0.540124469200  4.670959255600
H   -2.733802719300 -3.895197199900 -0.978466907400
H   -1.985188998800 -4.600630570800  0.465272652800
H   -0.981113829500 -4.016668085000 -0.867782392400
H   -3.831896038000  0.749374119900  0.237363823000
H   -4.001886318600  3.181063047200  0.153436702700
H   -3.023885306200  4.425965881200 -1.752350221500
H   -1.784326051100  4.449312760200 -3.797409641500
H   -0.523631748300  3.286311495300 -5.570728032500
H   -0.245644824700  0.833375544500 -5.460253340800
H   -1.224769142300 -0.443031051800 -3.651017645700
