82
-125.29744722
C   -2.679895092800 -2.997420699600 -2.348006293100
C   -2.506542685700 -1.654345491200 -1.627832150700
N   -1.435555242500 -1.640721893500 -0.625130628400
P    0.095610025100 -1.680577420300 -1.367499837200
O    0.942369677300 -2.083819868800 -0.001866252700
C    2.313085390900 -1.962058610200 -0.145016411000
C    2.905592630500 -0.723053586000 -0.020396319700
C    3.070146167000 -3.119883228200 -0.385172821200
C    4.426439739500 -3.035626513800 -0.509446084100
C    5.074143307400 -1.782890896900 -0.465909108900
C    4.307844035900 -0.607390380400 -0.243212550300
C    4.964209095900  0.641175319800 -0.303619680100
C    6.312860302900  0.717598131000 -0.515996351400
C    7.076781183500 -0.447565557700 -0.679919651600
C    6.466641420400 -1.670123729600 -0.664006818300
O    0.551652202700 -0.080453708000 -1.486459212500
C    0.949888949200  0.730840929100 -0.457955845200
C    0.215710876300  1.914418028500 -0.253955496200
C    0.581472848100  2.796299589000  0.718380079400
C    2.070964994200  0.451489951000  0.301616511500
C    2.393525190300  1.305802757200  1.395329112200
C    1.655295833000  2.503728608100  1.586155777900
C    1.996344669400  3.361507960800  2.653125399300
C    2.997615181200  3.035537515700  3.524480234100
C    3.691503909000  1.826243102500  3.370029628200
C    3.399073799800  0.983869565000  2.333096377800
C   -1.681376647300 -2.178980769500  0.715294921500
C   -2.886588554500 -1.522153683400  1.355363261100
C   -4.140195027800 -2.064548948600  1.199254142000
C   -5.278118810700 -1.489526010900  1.781868553900
C   -5.160567597100 -0.366263332400  2.546724363800
C   -3.897769402700  0.228977817600  2.746774416600
C   -2.742291888700 -0.335832704400  2.134405051000
C   -1.507627908800  0.316782311700  2.347296084700
C   -1.414208506500  1.427031652700  3.139679736300
C   -2.553189980700  1.967494838300  3.752058029300
C   -3.770054273200  1.382111766600  3.549992227900
C   -1.735590924700 -3.710891794700  0.771935507200
C   -2.222664444900 -0.520344406600 -2.595095402100
C   -1.577118241400 -0.758686830200 -3.783778687900
C   -1.284577625600  0.272403059700 -4.686941115100
C   -1.643544081900  1.557068421400 -4.402680335100
C   -2.594699519200  0.815265403900 -2.268932978000
C   -2.303879868400  1.858225200400 -3.193796305200
C   -2.669282159300  3.186091121400 -2.884449084500
C   -3.292155548500  3.490632524100 -1.707343705700
C   -3.571462076500  2.470459198000 -0.787135776100
C   -3.233357403300  1.173496695700 -1.060415051600
H   -3.266792548700 -2.857851002400 -3.253110365200
H   -3.204475439500 -3.708354806200 -1.716365482400
H   -1.711728347300 -3.421041648600 -2.606464653800
H   -3.445268132400 -1.437805761100 -1.108686940800
H    2.551599430900 -4.064218901200 -0.457566592600
H    5.017363599500 -3.924908179600 -0.671919285400
H    4.384242006200  1.544591658300 -0.192728009100
H    6.797484179100  1.681892352100 -0.563184725400
H    8.142968071700 -0.369079814100 -0.834080970400
H    7.039534004400 -2.573912214000 -0.815100939800
H   -0.629298150900  2.098618082100 -0.897367190200
H    0.030148584300  3.715024312600  0.855092342200
H    1.435440203000  4.277629094400  2.774725264100
H    3.249976787000  3.695137866000  4.341890871500
H    4.460167223800  1.560013850800  4.080923827300
H    3.931962402800  0.050434924800  2.231486782700
H   -0.801747739200 -1.900279261300  1.298433888000
H   -4.275029086500 -2.964120828400  0.619019248500
H   -6.242020257200 -1.950753523600  1.622455654200
H   -6.027270783800  0.081790281900  3.011433043500
H   -0.611689990700 -0.051091203500  1.872570851500
H   -0.453504242600  1.894841373500  3.293769941900
H   -2.460060758800  2.845066957100  4.375240314200
H   -4.661280585600  1.790780980400  4.005798402500
H   -1.818248048400 -4.026664591400  1.810262341900
H   -0.811674165500 -4.108365393700  0.357744100100
H   -2.566115944400 -4.131109983100  0.216397146900
H   -1.283241220400 -1.760781244900 -4.051809744900
H   -0.771433160500  0.034987986300 -5.607514520400
H   -1.424484656400  2.361276028700 -5.090867272400
H   -2.439518848300  3.961546626100 -3.602024835700
H   -3.566687003500  4.509970057900 -1.477258641900
H   -4.054111801300  2.713244831800  0.148418677700
H   -3.444846685100  0.419473376000 -0.320889076500
