82
-125.29845618
C   -1.516067395400 -2.257623704000 -2.735340468500
C   -2.003320031800 -1.651256945600 -1.421044332700
N   -0.909102678500 -1.258126703700 -0.540966787800
P    0.601376080800 -1.016380660600 -1.211083198300
O    1.485214388000 -1.742142989300 -0.003065074800
C    2.840272657800 -1.755866956800 -0.259014475200
C    3.592524110600 -0.620990510100 -0.045673184900
C    3.415374462600 -2.945745614300 -0.736404598100
C    4.748593148300 -2.996105999700 -1.016999112300
C    5.545928102100 -1.835918897600 -0.910510687400
C    4.963065479300 -0.626728691600 -0.446247057500
C    5.754177641100  0.542187217500 -0.459433742100
C    7.065056062500  0.502531932200 -0.847716867500
C    7.655727566800 -0.705804299000 -1.244325108000
C    6.906117475200 -1.847778321800 -1.284077182100
O    1.008382866000  0.576501432800 -0.860485300300
C    1.813289413400  1.132472266100  0.090750295800
C    1.406985520100  2.412524306400  0.528407014000
C    2.089651478200  3.073727763500  1.502793022200
C    2.987418768200  0.575484027700  0.565679770600
C    3.633614850900  1.196846354000  1.679221361300
C    3.186892707500  2.460607839900  2.144202587400
C    3.844116002400  3.074407397800  3.229740268600
C    4.881708389300  2.451225727500  3.864856779200
C    5.288567635200  1.176583411000  3.446212761900
C    4.682653881800  0.565764127600  2.382654126600
C   -1.197389440100 -1.289517775100  0.899794395500
C   -2.607177641700 -0.797087873400  1.179676029700
C   -3.625242209000 -1.693878169800  1.398814427100
C   -4.947943041800 -1.284216811400  1.611362317100
C   -5.266595657800  0.041084344700  1.599091073500
C   -4.260338511900  1.006663421600  1.399669518200
C   -2.913789604900  0.593952838200  1.199570421000
C   -1.941384612500  1.601365985100  1.032971145400
C   -2.273249808700  2.927095282300  1.058698297200
C   -3.603970157100  3.327006192500  1.239215858000
C   -4.574577351600  2.381760809500  1.404950976500
C   -0.937988182900 -2.688935842600  1.473893331500
C   -2.913665918200 -0.474050133200 -1.719718170900
C   -2.336911758300  0.741910135800 -1.981369722000
C   -3.106750208400  1.886669739300 -2.214933533200
C   -4.469180702700  1.809093586500 -2.179831759400
C   -4.328540462600 -0.598679652100 -1.750037216800
C   -5.108860495800  0.572505859300 -1.959333151600
C   -6.516722026400  0.476920967600 -1.961427296300
C   -7.142512353100 -0.724882066500 -1.793293889600
C   -6.378196880200 -1.887473347500 -1.621156240500
C   -5.012886746600 -1.824767662300 -1.596606075200
H   -2.366487839400 -2.664163429500 -3.279353645400
H   -0.801296432900 -3.055213834300 -2.541091793100
H   -1.041083208800 -1.501429524100 -3.355107981900
H   -2.568018137000 -2.420034211700 -0.886423958500
H    2.774014284600 -3.805239808100 -0.862182007500
H    5.203413801400 -3.914275242000 -1.358269378100
H    5.309044318200  1.482385090400 -0.172078431300
H    7.652145401600  1.409317842100 -0.855021767700
H    8.696096353700 -0.722101623400 -1.534222223500
H    7.339586491600 -2.780061555600 -1.617092478500
H    0.552076060700  2.854207337500  0.040265591000
H    1.784179983700  4.062316387400  1.812538271400
H    3.499402014300  4.044959657600  3.557573299300
H    5.380049251500  2.925161378700  4.697821874300
H    6.084407452700  0.671976266200  3.974618359600
H    4.996063759300 -0.423466481000  2.085074710300
H   -0.480609566500 -0.612207814000  1.378236683200
H   -3.428491311900 -2.754096472500  1.409311205700
H   -5.709877575100 -2.032245924400  1.774813716400
H   -6.285201692100  0.369902832700  1.746196752200
H   -0.913180116500  1.319734099800  0.883607879600
H   -1.508733494400  3.681283188700  0.939632200000
H   -3.850748452900  4.378893383400  1.248703707600
H   -5.606352845700  2.670532017000  1.549160301200
H   -1.439508056900 -3.456257561600  0.889100339500
H   -1.279728069700 -2.739330960500  2.505202357700
H    0.127482592600 -2.896159798200  1.450041879400
H   -1.258373640700  0.821501873800 -1.983903555200
H   -2.613365714500  2.828274951100 -2.407746090200
H   -5.077584575000  2.689096208100 -2.333374681700
H   -7.092022775200  1.380288875400 -2.109696236800
H   -8.220998860200 -0.790125684700 -1.800234606600
H   -6.877972007700 -2.838919995100 -1.507485568200
H   -4.453476590500 -2.738863555500 -1.473112414200
