82
-125.29580054
C   -2.348761362000  1.931807886100  0.713529854200
C   -2.051023163800  1.270519856800 -0.637039632300
N   -1.336368571900  0.001389716400 -0.443431615700
P   -0.040832825600 -0.256738694500 -1.542719147300
O    0.694711685000 -1.407805762100 -0.589950508500
C    2.033603752000 -1.605481566800 -0.851876105900
C    2.956725271000 -0.725583982200 -0.327922393900
C    2.425763446200 -2.716099814800 -1.615821964900
C    3.749945248200 -2.937876711000 -1.862157434500
C    4.729545869000 -2.032025559000 -1.402941782900
C    4.333029857700 -0.899210151500 -0.641920788100
C    5.320564857600  0.037181557000 -0.265685665400
C    6.635091428200 -0.161865150600 -0.584695597900
C    7.031628529800 -1.304532398800 -1.295903517300
C    6.096508021500 -2.214610727400 -1.701667392200
O    0.929559497300  1.044021878600 -1.217660165800
C    1.514398174700  1.251937402100  0.016127548900
C    1.146935099400  2.409282797600  0.724099844000
C    1.686785628600  2.669402075300  1.949729172300
C    2.478482925800  0.394894890800  0.507898514200
C    2.981253516000  0.603841240900  1.822867119200
C    2.583134518600  1.759175949600  2.546605828800
C    3.087164260700  1.964807735900  3.848296914300
C    3.926266730000  1.054568450200  4.427241128500
C    4.287799426200 -0.107978372500  3.729434548800
C    3.829162708300 -0.328397021900  2.460108675300
C   -2.045841138700 -1.235128480400 -0.092406491600
C   -2.864731229300 -1.094049197300  1.172407238000
C   -4.224443787200 -1.278407173400  1.173091631300
C   -4.980025504000 -1.184680347700  2.352044378800
C   -4.370986586400 -0.912224474400  3.541846893300
C   -2.972548107800 -0.732541328700  3.599594754500
C   -2.201919604900 -0.828822650000  2.408277910500
C   -0.804771205800 -0.650058160100  2.511464774000
C   -0.207391998500 -0.391694405400  3.714039764600
C   -0.973029858700 -0.291644405700  4.884296734200
C   -2.327252020000 -0.460162141100  4.824662303900
C   -2.792038592900 -1.861879041900 -1.274469317600
C   -3.262997744500  1.204562792500 -1.547456048600
C   -4.531727340900  1.134844493400 -1.024313310100
C   -5.666636462200  1.019992301800 -1.838838503500
C   -5.535313636300  0.970109876700 -3.195753085100
C   -3.105952764600  1.218540157300 -2.966060559300
C   -4.260259942600  1.076219302800 -3.788668422600
C   -4.121024126100  1.054149722700 -5.192729404400
C   -2.896532311800  1.186234075600 -5.782367515400
C   -1.760390201000  1.365307147400 -4.981534513000
C   -1.863901554300  1.384307837300 -3.617888087900
H   -3.075231846700  1.379239952500  1.297743843300
H   -2.722536515000  2.940137280600  0.545523640800
H   -1.431254403100  1.982953477200  1.294877263600
H   -1.316128562800  1.922524663000 -1.123922630500
H    1.658273925600 -3.378170442400 -1.988393638100
H    4.062198785500 -3.798584644800 -2.435087141600
H    5.023841845400  0.925136132600  0.271571435600
H    7.377650886200  0.566159848300 -0.292244800000
H    8.075843929900 -1.450513469900 -1.530390069800
H    6.387009873800 -3.087224117700 -2.269137662200
H    0.446032595300  3.088561210300  0.263429302100
H    1.412659562600  3.565013993100  2.487707753000
H    2.783367563200  2.853351783100  4.383172011700
H    4.304931696900  1.215965721400  5.425949757400
H    4.929687211800 -0.835173603100  4.205037894900
H    4.101439611600 -1.232643282300  1.936973521700
H   -1.244505696600 -1.942088399100  0.156050224900
H   -4.745558604900 -1.496166999100  0.254936671400
H   -6.049653496300 -1.330708378000  2.302382902700
H   -4.944742239800 -0.835278508300  4.454622437500
H   -0.195051986400 -0.707676889200  1.625977369100
H    0.863557794100 -0.259046011000  3.765682966700
H   -0.484914971200 -0.083368781500  5.825572663500
H   -2.931162949300 -0.388147160300  5.718717399700
H   -3.614039436100 -1.246955900600 -1.625645155300
H   -3.168790558600 -2.843747799900 -0.995316143200
H   -2.086346034600 -1.982764340500 -2.097209784400
H   -4.680108978600  1.147232103600  0.042740205100
H   -6.641243122300  0.959881306400 -1.376153573900
H   -6.399855260300  0.860771681900 -3.834902191800
H   -5.011584867600  0.935152114100 -5.793966482300
H   -2.797171737800  1.167228797100 -6.857854901100
H   -0.794389288600  1.494655810800 -5.447471993900
H   -0.965902691300  1.542408444200 -3.040696823100
