82
-125.30070647
C   -1.418730443000  0.414550716700  2.878374763800
C   -1.049127468000  0.304091173000  1.390495682900
N   -1.258898613500 -1.035072286100  0.846751987600
P    0.022180317100 -1.908423482600  0.196109081700
O    1.196837638000 -1.425205290900  1.285602227800
C    2.498259569700 -1.667574016800  0.906002389600
C    3.123970721300 -0.816706766000  0.017983870700
C    3.167027099000 -2.770429885200  1.463511529700
C    4.462374475500 -3.027719272100  1.122470440800
C    5.123361530400 -2.232863580000  0.161541287600
C    4.444291568500 -1.127479546000 -0.417515640000
C    5.091215729300 -0.408442472000 -1.445939764600
C    6.360203394600 -0.731698935000 -1.839919291900
C    7.049311745400 -1.789901483800 -1.229295622000
C    6.438176584200 -2.528835424700 -0.255608139000
O    0.511942641800 -0.997111385400 -1.108401002400
C    1.148740519000  0.217578223000 -1.058271985000
C    0.501178792600  1.301482530500 -1.680332173900
C    1.080984357000  2.534674544700 -1.696208142400
C    2.400337008400  0.365137137000 -0.491515541900
C    2.963346033100  1.671054364700 -0.403142537400
C    2.303155030900  2.760514643300 -1.029674360100
C    2.875488177500  4.047113666500 -0.957673490300
C    4.033063492500  4.262876377900 -0.264238245700
C    4.659081570300  3.197638386200  0.400012209900
C    4.139453045900  1.934537329300  0.332391964400
C   -2.471631793400 -1.778203338200  1.168720918900
C   -3.333692055000 -2.117178664600 -0.036000128700
C   -2.770881857400 -2.288657886000 -1.273824561000
C   -3.537434609400 -2.632999215400 -2.395101246800
C   -4.884501348100 -2.813350651100 -2.272925401700
C   -5.513687489600 -2.655745657100 -1.020311357100
C   -4.738629792900 -2.305410693400  0.121139543100
C   -5.417737024600 -2.161895962800  1.352585686500
C   -6.768370175900 -2.353658530500  1.450501296400
C   -7.524660808500 -2.700686763700  0.322339878300
C   -6.905666860500 -2.846244866800 -0.886151949000
C   -2.146852178900 -3.080583128300  1.911718416600
C   -1.721017528800  1.419334442300  0.613663159700
C   -2.847008196300  1.189946847400 -0.133223765000
C   -3.494867693700  2.219712432300 -0.830578013400
C   -3.014322719800  3.494593648500 -0.772154523900
C   -1.186572109500  2.740244261100  0.677135030800
C   -1.854271097400  3.783502430800 -0.022857050400
C   -1.346709956500  5.098895317600  0.034350052400
C   -0.219109811900  5.389517134100  0.747388871700
C    0.453976638100  4.364556339800  1.425379252000
C   -0.014620293100  3.080593209400  1.389484525200
H   -1.003479433600  1.331105902200  3.288871794300
H   -1.008982652500 -0.430877922500  3.426531600700
H   -2.496435238400  0.450450555300  3.022497556200
H    0.029821555600  0.462966632200  1.314268132000
H    2.628702628000 -3.390963355700  2.164320772300
H    4.989068473900 -3.861591530100  1.562743876300
H    4.565770042900  0.398943917900 -1.932771341100
H    6.837716111900 -0.172585290400 -2.631375084900
H    8.055410983500 -2.024086914000 -1.544953235700
H    6.948410858700 -3.362895873600  0.204783889700
H   -0.456166997600  1.119325883700 -2.144458489100
H    0.591901724900  3.361734814300 -2.188690466500
H    2.367128025900  4.862028201100 -1.452474088100
H    4.463783032600  5.252044809300 -0.209905438300
H    5.556908435800  3.381370180600  0.972221978200
H    4.623023803100  1.124109439800  0.856960657000
H   -3.051952407400 -1.136752793600  1.833108163800
H   -1.708168271600 -2.141695819400 -1.401738258700
H   -3.047890154300 -2.753043756600 -3.350523142600
H   -5.488520231400 -3.080162140300 -3.128427056200
H   -4.869489397500 -1.898477623400  2.243387888000
H   -7.261429218400 -2.238015135600  2.405135628200
H   -8.590436897300 -2.849416815400  0.417283431900
H   -7.473859963200 -3.113014231000 -1.766292738000
H   -1.494495078800 -2.874126374000  2.757318399900
H   -1.641226721000 -3.772174989700  1.241302968500
H   -3.059196953800 -3.551417786100  2.270274333800
H   -3.250584918000  0.194079370300 -0.209581482500
H   -4.378325148300  1.985872476700 -1.407386540800
H   -3.508564140300  4.299386143700 -1.297871921000
H   -1.873146190900  5.875378184700 -0.503364142100
H    0.163586193300  6.398959876400  0.787874285300
H    1.354935629700  4.592868537800  1.976045251900
H    0.542851929100  2.318641171700  1.911433003200
