82
-125.29549832
C   -0.476298669400  0.329955599100  2.643577840500
C   -0.792695357800  0.348447311600  1.140116658600
N   -0.830833238800 -1.007702567300  0.577290834400
P    0.523988997700 -1.779983375600 -0.022659362800
O    1.547962939700 -1.290751796900  1.191248950600
C    2.873908062500 -1.609053299400  0.996435774800
C    3.655339114400 -0.815952232700  0.183197605700
C    3.400895540500 -2.731122585300  1.657967837300
C    4.712263306000 -3.067282351100  1.493652413600
C    5.534374575300 -2.337235222100  0.608230017600
C    5.000439334100 -1.211888707600 -0.074888731600
C    5.812489881400 -0.562602629600 -1.029671357800
C    7.098853092000 -0.969320579400 -1.253963880000
C    7.641907068800 -2.046043538900 -0.537981540100
C    6.870629984300 -2.719657868200  0.367039646200
O    1.140205633200 -0.807623646300 -1.247078993600
C    1.899405208900  0.325616143100 -1.151618721700
C    1.461687094000  1.428602857400 -1.914682580300
C    2.132852298200  2.613606726000 -1.877426863700
C    3.078524538800  0.393878454100 -0.431990899000
C    3.726800532300  1.657163384100 -0.297026491400
C    3.251272101200  2.774732705900 -1.031916515500
C    3.904855426800  4.017374895800 -0.902656015400
C    4.967769339600  4.166294900400 -0.056331438200
C    5.409443005100  3.076415077400  0.707748698800
C    4.806535714700  1.854280796700  0.591085859400
C   -2.119687665400 -1.678938237700  0.501402293200
C   -2.909053953100 -1.258192547100 -0.726200575800
C   -2.242572650800 -1.089669262500 -1.912141401200
C   -2.896549219300 -0.654647887700 -3.070591354200
C   -4.232971149500 -0.377657271800 -3.034626330700
C   -4.971063122100 -0.578066148400 -1.850588219800
C   -4.314890945900 -1.054841158800 -0.681344493500
C   -5.109434341600 -1.316951138000  0.456455156300
C   -6.455305604100 -1.079703095100  0.455373409200
C   -7.089005703100 -0.567377495800 -0.685294605600
C   -6.359769579400 -0.329995488700 -1.814724435600
C   -1.966539606500 -3.199239423700  0.506656328200
C   -2.011556277000  1.152167984000  0.709824588600
C   -1.866481914800  1.824592109400 -0.481571288900
C   -2.893890263800  2.571446677600 -1.064463295300
C   -4.097834545500  2.666919668800 -0.431973535800
C   -3.258737323800  1.248973039800  1.395269338700
C   -4.300795768000  2.023525292500  0.804122215600
C   -5.545406088700  2.147757364800  1.457688304800
C   -5.781090334200  1.543124555000  2.657612972200
C   -4.768265229800  0.775420012100  3.245418063000
C   -3.554286427200  0.630427244100  2.632560473600
H   -0.840740679900  1.235740434400  3.122030319900
H    0.600663400500  0.276859483500  2.783112262100
H   -0.902306310500 -0.544417883200  3.128812933800
H    0.063866027700  0.838034892200  0.657633238400
H    2.741822215700 -3.301720134000  2.295069284400
H    5.130324189400 -3.915422470600  2.015578605400
H    5.402174466500  0.258211861400 -1.597855704500
H    7.703367127500 -0.462432572500 -1.991986512100
H    8.663401344300 -2.346714552000 -0.719312592500
H    7.268047559900 -3.567865170200  0.906101307800
H    0.594833449000  1.289355738200 -2.544146253600
H    1.801647895200  3.449245112500 -2.476552406800
H    3.538378577500  4.854070760700 -1.480451712200
H    5.462638208900  5.121619429800  0.039787136600
H    6.230363948500  3.208544941600  1.397449268300
H    5.146562607000  1.027145605700  1.195849988500
H   -2.670564013300 -1.389578285700  1.399436131900
H   -1.178793053900 -1.279178286700 -1.951294541900
H   -2.331897733500 -0.529657953100 -3.983582449800
H   -4.747514895600 -0.015682037800 -3.913581421500
H   -4.655732274300 -1.725012065600  1.345414972400
H   -7.040891275900 -1.290408830800  1.338408397600
H   -8.152004686800 -0.375108763400 -0.665475257600
H   -6.837425478200  0.045602747000 -2.709072326500
H   -1.543742490400 -3.544605476400 -0.433457218600
H   -2.942539487300 -3.662370200100  0.636089289900
H   -1.312577098800 -3.506715798400  1.320600759000
H   -0.919603681000  1.770085086100 -0.997063247900
H   -2.721064551900  3.065479395000 -2.009355057200
H   -4.909563372000  3.236082816200 -0.861760998000
H   -6.313232003700  2.740535163700  0.980750583100
H   -6.735355030800  1.647697107700  3.152759450100
H   -4.951322632000  0.288981459300  4.193125719200
H   -2.813271298500  0.025743303500  3.122192400800
