82
-125.29434959
C   -0.574946146500  2.154240125800  2.422776800900
C   -1.247612994800  1.620698523600  1.153293122200
N   -1.069527828600  0.177152846800  1.051733762800
P   -0.123955241600 -0.552877341500 -0.156223864500
O    1.057160108500 -1.136627991800  0.887596765900
C    2.162112176500 -1.642885049400  0.245302539300
C    3.128377256600 -0.773058767600 -0.215096965100
C    2.287600810800 -3.031830723500  0.074845601500
C    3.374875755800 -3.545635182300 -0.569505856800
C    4.351043869500 -2.692591017600 -1.126876704400
C    4.221455466000 -1.286609395500 -0.968741380800
C    5.158658075200 -0.450767751300 -1.614179963300
C    6.195832059600 -0.979284785400 -2.331574749500
C    6.351519341800 -2.368989943100 -2.443215711400
C    5.442319096700 -3.205499702400 -1.859269388700
O    0.724183992000  0.714116195700 -0.802571388100
C    1.830590497600  1.345608617500 -0.272511363700
C    1.771042849000  2.750258969200 -0.179679846100
C    2.820128877600  3.461268462900  0.322973479300
C    2.988090273300  0.669676930100  0.061030087700
C    4.049276832400  1.387974131300  0.686961353100
C    3.966169012300  2.799459783200  0.809944810400
C    5.026314597600  3.505601282800  1.415736715700
C    6.114833884000  2.845200586700  1.912243743700
C    6.177954188200  1.446003688100  1.835457412800
C    5.173386451800  0.735333995900  1.238747851600
C   -1.987600447400 -0.698426608800  1.783829970200
C   -2.405069242000 -1.838975477100  0.879938002000
C   -1.559886230000 -2.914817159200  0.736337620500
C   -1.815947177800 -3.944639595300 -0.177314320300
C   -2.927448993500 -3.894635093300 -0.966842966400
C   -3.852588952800 -2.840638936200 -0.825263355500
C   -3.612523189100 -1.807067118300  0.125827085300
C   -4.618937017900 -0.828980492900  0.285774842800
C   -5.757114837400 -0.840214047400 -0.471067651700
C   -5.960646688200 -1.829610762200 -1.442142378400
C   -5.027724310300 -2.812720614400 -1.606052234500
C   -1.357243910200 -1.198491689400  3.091529373900
C   -2.690477389400  2.059886469300  0.986804677200
C   -3.414291094800  2.562406544600  2.040097893300
C   -4.730945770900  3.019848626800  1.881505133300
C   -5.328577403600  2.982408541400  0.655814611200
C   -3.306219502500  1.981794102600 -0.297422128800
C   -4.636497885900  2.460922999500 -0.457077326700
C   -5.252434770600  2.395472556500 -1.724288834200
C   -4.598149073400  1.863294346500 -2.798199050600
C   -3.293282683800  1.375631591100 -2.643886470500
C   -2.664626918900  1.438164627300 -1.431357994100
H   -1.023620802900  1.741496705000  3.321199942000
H   -0.638902585000  3.239663492400  2.454996563900
H    0.474614735600  1.866955325500  2.408500493400
H   -0.703824872000  2.052721236200  0.309413693400
H    1.511336514500 -3.669843441200  0.467984069100
H    3.486855450400 -4.613607590800 -0.686685890200
H    5.041439517900  0.620124950900 -1.546520422600
H    6.901247940700 -0.324392099100 -2.822034035600
H    7.183129675900 -2.769113276700 -3.004521160800
H    5.536843688800 -4.277495003500 -1.958781002100
H    0.883404723900  3.251728990400 -0.536406909500
H    2.772896798700  4.538975705800  0.374989592300
H    4.952986275200  4.581378225400  1.488238220300
H    6.922792683600  3.391104722100  2.376875141600
H    7.027159410800  0.928334355200  2.257225306500
H    5.227001813700 -0.342042109100  1.199574061300
H   -2.864116142200 -0.101566845700  2.048588297900
H   -0.675261060400 -2.979249611700  1.348221232800
H   -1.119875361300 -4.766849900600 -0.259729122400
H   -3.125248627200 -4.666675944800 -1.696668921700
H   -4.509446537900 -0.060221148300  1.032957690000
H   -6.509724066800 -0.080967053200 -0.318301176600
H   -6.859271214600 -1.815823747600 -2.041425695400
H   -5.178712421000 -3.599042071600 -2.332425594100
H   -0.331981085300 -1.514166047700  2.924956165700
H   -1.934196360600 -2.031790291800  3.486826170400
H   -1.345476852300 -0.404700581700  3.833710941900
H   -2.976965236500  2.621220199100  3.024072624100
H   -5.259673467400  3.406488370500  2.740876289500
H   -6.338318197000  3.343095905700  0.520012872200
H   -6.261244964000  2.771122948400 -1.825382159500
H   -5.078351247700  1.810178993100 -3.764441250700
H   -2.780796587400  0.945502985400 -3.492101060900
H   -1.663239912500  1.044856978400 -1.348463231100
