82
-125.29385690
C   -2.172284373100 -2.724043747400 -2.606480463700
C   -2.562243565500 -1.737775853600 -1.498799424700
N   -1.445917290900 -1.419656184000 -0.605431291700
P    0.047192675300 -1.198965592300 -1.359327089300
O    0.983935562500 -1.978086217500 -0.231925270400
C    2.333564802900 -1.912422271500 -0.515524624000
C    3.049638623300 -0.771758928700 -0.218321981600
C    2.944034624000 -3.039113114400 -1.092303548000
C    4.275234079100 -3.022081484300 -1.386835117600
C    5.035006247700 -1.848884109100 -1.190453896600
C    4.415942117300 -0.701258775700 -0.626786155500
C    5.168931531900  0.490429398000 -0.549468803100
C    6.477283592900  0.525695697600 -0.946442184800
C    7.104186681700 -0.626357431900 -1.442792712700
C    6.391993846300 -1.785545327700 -1.570892138000
O    0.486708621500  0.375243583800 -0.998938642500
C    1.210887591800  0.891995211400  0.033890649500
C    0.718036408900  2.098357938600  0.570959526300
C    1.376141822500  2.731046819100  1.580606021000
C    2.405871029800  0.357236861700  0.477899131800
C    3.021694628400  0.931858229700  1.630303178700
C    2.515098155900  2.142450965300  2.169228961900
C    3.146991609600  2.719575764200  3.289253461700
C    4.212103217800  2.107372691400  3.888571989400
C    4.678160239300  0.880737375500  3.394647278500
C    4.100554310600  0.309089092800  2.294216756200
C   -1.501601945500 -1.782993610200  0.822118358500
C   -1.080323176600 -0.646261032100  1.734896692500
C   -0.038988595700 -0.873093853800  2.601285979900
C    0.321929851400  0.053522344000  3.587360698700
C   -0.379590558400  1.216066612800  3.718823531800
C   -1.439119116900  1.511495435800  2.837263905600
C   -1.789879587900  0.582847484200  1.817354519900
C   -2.834660812200  0.935170888000  0.936777289600
C   -3.506205449200  2.119437877300  1.064561128600
C   -3.172157037600  3.021279875500  2.084822501800
C   -2.156714303300  2.721094028600  2.947977304000
C   -2.835968853600 -2.332184586000  1.339644914700
C   -3.177853378000 -0.504146542400 -2.137443458200
C   -2.353446858900  0.455534417500 -2.664914922700
C   -2.854183093500  1.614128172300 -3.270450422000
C   -4.202552178000  1.809204320800 -3.354341061400
C   -4.590013405900 -0.341665440300 -2.239226457900
C   -5.095961118500  0.842618482800 -2.848211409300
C   -6.490787763800  1.036367259500 -2.944789290500
C   -7.368130381700  0.102332030400 -2.473382519900
C   -6.878258437400 -1.073714144200 -1.888482398700
C   -5.532415045300 -1.288446945700 -1.776400110700
H   -1.529814129300 -2.244729286000 -3.340415743400
H   -3.068013570000 -3.079860118300 -3.112073072100
H   -1.643803093200 -3.573451349500 -2.177549391700
H   -3.317945401500 -2.223632434400 -0.888386197300
H    2.330718503200 -3.907537326300 -1.281934190500
H    4.755974444200 -3.893819932800 -1.805575335700
H    4.694966205800  1.388765942800 -0.184902833600
H    7.034265637400  1.449172720600 -0.883554806800
H    8.142188884900 -0.584589150400 -1.738589309700
H    6.852962138700 -2.673146813300 -1.980329849500
H   -0.185749369600  2.503821766800  0.141780409000
H    1.011118459600  3.671798663300  1.965212136500
H    2.758530109400  3.651731134200  3.674524968600
H    4.688067540400  2.552106866600  4.750404777800
H    5.497361395600  0.383054471300  3.893364541800
H    4.460387117900 -0.643120853800  1.934194160000
H   -0.769978414300 -2.588220553100  0.975698579800
H    0.515234394500 -1.799690616200  2.537111771400
H    1.147358007400 -0.170569710900  4.247271251200
H   -0.129804967500  1.927704729400  4.492568699100
H   -3.090469828400  0.272933479200  0.128276701800
H   -4.299911519200  2.365258702600  0.373498870600
H   -3.715007911500  3.951275620000  2.175884218900
H   -1.879152480700  3.412273868800  3.731815839600
H   -3.654883402400 -1.631035563200  1.203080172800
H   -2.720609165400 -2.503846785900  2.408802334700
H   -3.080367665100 -3.287080458300  0.878109897100
H   -1.282791283300  0.326125263200 -2.595348615700
H   -2.163601340800  2.345751939200 -3.663914309200
H   -4.606646325100  2.701126013100 -3.811995683700
H   -6.851126733800  1.945116799500 -3.406522666300
H   -8.434285348900  0.258261626900 -2.550896831200
H   -7.574551985200 -1.816258030300 -1.525795254600
H   -5.197465376300 -2.212084987200 -1.330732087400
