82
-125.29476223
C   -0.653415219500  2.225228284800  2.246383244000
C   -1.227527301700  1.619960503500  0.960550106600
N   -0.931317035300  0.189200097900  0.940995970700
P    0.027059956200 -0.489220035500 -0.294506494600
O    1.154744879200 -1.157703375200  0.749675938200
C    2.287963834600 -1.623435931700  0.125453782400
C    3.276298077900 -0.729575394900 -0.230385537700
C    2.419940358500 -2.999359038300 -0.126515012700
C    3.537035424700 -3.476028430200 -0.748371000600
C    4.539161673800 -2.592897987100 -1.202826554900
C    4.403234906500 -1.199107643600 -0.962370456900
C    5.371699769300 -0.327823683600 -1.507122671800
C    6.442707054700 -0.814184639100 -2.204206232000
C    6.603033284700 -2.194846873200 -2.394949584900
C    5.665263135100 -3.062967019000 -1.911057810500
O    0.912101102900  0.800665586100 -0.834723696200
C    1.986591634700  1.394177205400 -0.204612186400
C    1.918676751100  2.787830868400 -0.012780781300
C    2.943527107000  3.459495999800  0.585218923700
C    3.126608468700  0.692503776400  0.135803838300
C    4.158134223700  1.362818334600  0.857036465000
C    4.068490108500  2.762950673100  1.072646409500
C    5.101208297300  3.424121842300  1.769815583200
C    6.168388569300  2.729431573900  2.265662768100
C    6.235634058800  1.338472357300  2.096943651200
C    5.257892943500  0.671913956500  1.411385848300
C   -1.854820562500 -0.685706990100  1.670336867200
C   -2.523563176800 -1.675297330400  0.738845809400
C   -1.752284848500 -2.665007825300  0.177616630100
C   -2.255024439800 -3.541996178500 -0.791724996000
C   -3.553382486200 -3.435755259300 -1.196449915900
C   -4.408587486600 -2.487278334500 -0.599581586600
C   -3.903288999700 -1.600736051300  0.394967354100
C   -4.827440316400 -0.729368966800  1.012886297400
C   -6.145573905600 -0.707369265400  0.651977014100
C   -6.624595873300 -1.550339584700 -0.359317829300
C   -5.769483571700 -2.424092370200 -0.966666873000
C   -1.149673909000 -1.390858468500  2.834654755900
C   -2.690828251800  1.948040736800  0.722640919900
C   -3.464991997800  2.517267568200  1.704121231700
C   -4.807629059400  2.859131174300  1.484234032400
C   -5.388454825800  2.619415251300  0.274033431000
C   -3.276351640500  1.694928176600 -0.552390451700
C   -4.642891403500  2.027546111100 -0.766131861600
C   -5.234720291600  1.768900885400 -2.019710661800
C   -4.516307074100  1.205692744200 -3.035251834800
C   -3.165223346400  0.890296210600 -2.836549600800
C   -2.563542558800  1.133569825100 -1.633251778100
H   -1.117312201300  1.791916232200  3.128788223500
H   -0.789803861400  3.304066878500  2.257441978500
H    0.412335098400  2.008977449300  2.286810399900
H   -0.678049189000  2.062994267400  0.125067156500
H    1.627115686500 -3.660352803000  0.190622043000
H    3.654012732100 -4.535052961000 -0.925933265200
H    5.251683213200  0.737094893600 -1.378017700400
H    7.172010640400 -0.132572367600 -2.617150712800
H    7.461590062100 -2.562089282600 -2.937837032500
H    5.763925761100 -4.126983633100 -2.072678592300
H    1.045213887600  3.313509662700 -0.368699315100
H    2.891870729100  4.530671119000  0.713059759100
H    5.023644309000  4.492596099500  1.912340769500
H    6.955474431600  3.240964245500  2.800039574600
H    7.066537787400  0.791637446700  2.518339600400
H    5.314055932500 -0.400452048200  1.301932219700
H   -2.610662144000 -0.028540436000  2.103718867300
H   -0.733066649700 -2.794338979200  0.504540785000
H   -1.604017801000 -4.291967197900 -1.216901848500
H   -3.952945535700 -4.090006106300 -1.958184950800
H   -4.503824956800 -0.070974531500  1.802816488900
H   -6.826871208700 -0.034437246600  1.151790236200
H   -7.666557896500 -1.511434304600 -0.641729655600
H   -6.124244997400 -3.096233261400 -1.735489269100
H   -0.304565457100 -1.974639412500  2.486884956200
H   -1.852574583100 -2.049202277100  3.341780982300
H   -0.777981443400 -0.654821707100  3.543495235600
H   -3.050875854400  2.719819187100  2.679077354000
H   -5.371824867600  3.311507943200  2.287262189300
H   -6.421912435300  2.877541504700  0.092395774400
H   -6.275652585000  2.025280662700 -2.158577093900
H   -4.977797090300  1.005163355400 -3.991176165800
H   -2.594453439600  0.453207238200 -3.642902427200
H   -1.519211915400  0.885159659200 -1.520102373400
