82
-125.29845500
C   -0.709392649000 -0.234478976700  3.136917581100
C   -1.050322308400  0.106935057600  1.679967324500
N   -0.948698326200 -1.088369717800  0.830360473100
P    0.464315157700 -1.663897236700  0.149263017900
O    1.498395890100 -1.128814285300  1.335505182600
C    2.815188927800 -1.465727548500  1.099102596700
C    3.565355818200 -0.726646315000  0.210202764300
C    3.355126561900 -2.566223993100  1.785926708700
C    4.649022534900 -2.938512671200  1.570821565200
C    5.431824769000 -2.276629058100  0.600174643300
C    4.882279628800 -1.175790601300 -0.109390377900
C    5.644892235800 -0.607188584300 -1.152250603000
C    6.904310302600 -1.060580054100 -1.433149698100
C    7.469073357000 -2.105945318200 -0.688407058900
C    6.741512598400 -2.706471684500  0.300338992200
O    0.896802949700 -0.556261744200 -1.041117677700
C    1.779144256200  0.484424875200 -1.049332107000
C    1.392698484600  1.580782286100 -1.851278836200
C    2.158052908200  2.704267261400 -1.923001339600
C    3.007057646500  0.486843940800 -0.412004574900
C    3.753046069900  1.705161186200 -0.374740291800
C    3.328615480600  2.819680948100 -1.143377818600
C    4.081039782900  4.011377352900 -1.114020184500
C    5.193437116900  4.119441452100 -0.327114641100
C    5.584848814900  3.039375773500  0.476582363800
C    4.885199535100  1.864103819200  0.453797951400
C   -2.146727028600 -1.915589855400  0.744433096900
C   -3.086453219500 -1.404311131800 -0.332554547200
C   -2.545920535200 -1.004469003800 -1.527423769300
C   -3.336595180700 -0.473740102300 -2.552511542400
C   -4.683023044500 -0.339046879100 -2.372640358100
C   -5.291464487000 -0.777212838900 -1.179029252300
C   -4.493552551400 -1.343523327400 -0.145963509100
C   -5.155529421500 -1.825698000000  1.004876204100
C   -6.512583752400 -1.730973879300  1.139446992000
C   -7.289724669300 -1.140945292100  0.132819744500
C   -6.687888664400 -0.678153454200 -1.001979397800
C   -1.832277444200 -3.386691658300  0.481021310800
C   -2.416275888200  0.756969353500  1.539237821500
C   -3.390781549000  0.535159256500  2.482648162500
C   -4.678537795700  1.074309640000  2.366796623900
C   -5.006804576300  1.842342837000  1.289538536600
C   -2.728570078000  1.588313601900  0.425399219800
C   -4.041972535000  2.120701006800  0.301522462900
C   -4.363971487900  2.931637931400 -0.806778152200
C   -3.429691636400  3.231360362000 -1.755597828100
C   -2.129282516800  2.725047432100 -1.629431659000
C   -1.792944409700  1.922903800800 -0.575023949700
H   -0.919057296800  0.617471165800  3.779683331900
H    0.346416363000 -0.475609839900  3.212893331200
H   -1.273726248800 -1.096757048400  3.483807742200
H   -0.283546437000  0.807511287300  1.329905178500
H    2.720256465300 -3.091160397000  2.483990332600
H    5.079422870100 -3.766451547100  2.114550985500
H    5.217152345900  0.187333254300 -1.744234897000
H    7.469759303100 -0.615262348400 -2.238710044100
H    8.470391579100 -2.442232973700 -0.914119132200
H    7.152525059500 -3.533153233100  0.862123646700
H    0.483052762100  1.479756442100 -2.422908919300
H    1.865405716000  3.528094875500 -2.557242210300
H    3.750124506000  4.843696658500 -1.719002276400
H    5.764687616500  5.035989916400 -0.306624393900
H    6.444185056600  3.141662541900  1.123341408100
H    5.189320635000  1.048321126100  1.092084683200
H   -2.639191540700 -1.847707810400  1.718345183200
H   -1.477030825500 -1.081169070500 -1.671602821500
H   -2.870278099300 -0.161849360900 -3.475860003100
H   -5.304127090300  0.091595770700 -3.145250068900
H   -4.587333080400 -2.294945023700  1.792734238900
H   -6.995888552600 -2.112726132500  2.027479079000
H   -8.360084986600 -1.064515595600  0.259116530600
H   -7.274967892900 -0.233416491700 -1.793560262100
H   -1.437354853800 -3.522054476400 -0.522618843500
H   -2.746436705800 -3.970037995800  0.572964005300
H   -1.101362876800 -3.751486920700  1.200325093800
H   -3.185837443100 -0.073248132100  3.349099024300
H   -5.407125842200  0.864678356300  3.136219373900
H   -6.000887272400  2.251016803600  1.179689635400
H   -5.371383715200  3.316198335600 -0.884149855100
H   -3.681552443400  3.856982917800 -2.599755373300
H   -1.391319429500  2.976796167300 -2.377263361800
H   -0.788871180900  1.540421592300 -0.505718920300
