82
-125.29244816
C   -4.532849160800  1.600681149500  0.882265760200
C   -3.112597264900  2.072447618400  0.529988374100
N   -2.064419101700  1.073892903100  0.782392844200
P   -0.860046637400  1.099328553100 -0.400099842400
O   -0.323269290000 -0.438120699900 -0.157513604000
C    0.756895606900 -0.797100958500 -0.932770090900
C    2.025717991900 -0.375381985200 -0.595951919500
C    0.525799752400 -1.618105618300 -2.049384537100
C    1.564117819200 -1.998803485300 -2.847061168200
C    2.867156374500 -1.512240871200 -2.605982939000
C    3.102418551000 -0.673069168500 -1.484316395900
C    4.390654627300 -0.117206285300 -1.326650872100
C    5.402463342800 -0.422531536700 -2.194753916700
C    5.182127887000 -1.298847493400 -3.267207562200
C    3.936875150300 -1.823511289700 -3.471436059400
O    0.456213142000  1.946953504900  0.219522387500
C    1.521598277300  1.512958524000  0.951855545900
C    1.899103229600  2.344259784300  2.028657130800
C    2.932857710100  2.003701035600  2.847836845200
C    2.258220327400  0.382779373400  0.647113416900
C    3.265485882500 -0.043425756700  1.563518146600
C    3.609636993200  0.778629748300  2.668330709900
C    4.611671992100  0.354152403900  3.565088023400
C    5.231961788000 -0.852978767800  3.403669758300
C    4.859233412800 -1.690825163100  2.342510646100
C    3.903684964100 -1.297623933700  1.446419690700
C   -1.972502201100  0.611475743200  2.175804826500
C   -1.155595685600 -0.659001992200  2.304825220600
C    0.072609251800 -0.663465807800  2.915741723000
C    0.830224297700 -1.836668831000  3.043348116300
C    0.361322878800 -3.017104711300  2.548638318500
C   -0.903636660100 -3.072760739100  1.927229152000
C   -1.685324245600 -1.890565229200  1.816741342800
C   -2.955042700500 -2.001888723100  1.211570516100
C   -3.417107701900 -3.195271790100  0.728606843700
C   -2.633093877000 -4.353057992100  0.823079252800
C   -1.404081874700 -4.288795783400  1.415784284600
C   -1.513276946000  1.722121714300  3.128149550800
C   -3.115273516700  2.558780200000 -0.904189186400
C   -2.987010257400  3.909115341100 -1.119687085000
C   -3.121808556100  4.475226237600 -2.395099329500
C   -3.411081966200  3.681009098800 -3.465442684200
C   -3.373469098100  1.704798742500 -2.015167631800
C   -3.536839448200  2.284763870300 -3.302760457700
C   -3.811867844200  1.452823886100 -4.409016259400
C   -3.899888316000  0.097289955600 -4.266317910500
C   -3.697366680500 -0.482110013900 -3.005993391300
C   -3.438759933800  0.298398408400 -1.912816670500
H   -5.233986303000  2.366381583000  0.556160137200
H   -4.658175879800  1.469760878200  1.954495306100
H   -4.786019021200  0.675588649300  0.374424512800
H   -2.912871300000  2.956984047100  1.153975945400
H   -0.487583415400 -1.937240430600 -2.239000502000
H    1.396832224900 -2.650026745500 -3.692287455600
H    4.570385794400  0.571001618400 -0.514904682800
H    6.379772549200  0.017434792900 -2.059425803200
H    5.995542211200 -1.539639809300 -3.935858392300
H    3.745483408200 -2.477351317700 -4.310350614100
H    1.353734846800  3.267243379200  2.165819254600
H    3.226590772700  2.654051060900  3.659041612300
H    4.869288261500  1.000228842700  4.392557449300
H    5.995955951700 -1.174593539900  4.096377163300
H    5.328309134700 -2.658668459500  2.239797157000
H    3.611958520200 -1.961761654300  0.647332317400
H   -2.993412520900  0.345258031400  2.478858988500
H    0.499631758000  0.247323939000  3.303182054900
H    1.794804078400 -1.785642535400  3.527165577600
H    0.947061669900 -3.922502440600  2.625247414200
H   -3.580159272500 -1.128821235500  1.127229000500
H   -4.394688214400 -3.251147740700  0.270411871600
H   -3.008225086200 -5.288250489700  0.432474490300
H   -0.789677644300 -5.174250028100  1.505071104700
H   -2.253662213900  2.518758333400  3.157650252000
H   -0.566953464200  2.146293069700  2.807559285200
H   -1.407570937300  1.324400938600  4.134783781800
H   -2.785954138500  4.565461628700 -0.283868341200
H   -3.008883452600  5.542972779400 -2.513583336400
H   -3.539658303600  4.104017561100 -4.451451577300
H   -3.942944782300  1.913296878900 -5.378222558900
H   -4.109660885700 -0.533029194100 -5.118423283400
H   -3.740740388500 -1.557065377200 -2.903936611400
H   -3.254361032200 -0.171990116600 -0.961696368600
