82
-125.29225253
C   -0.419687349200  1.806524370300  0.374210134300
C   -1.472540233500  0.700202858900  0.505410481400
N   -1.006958637900 -0.620153010300  0.080900270200
P    0.302373636900 -1.516476716300  0.721134315400
O    1.143470839900 -0.234676782900  1.316560391700
C    2.471243546100 -0.490808602100  1.597941891300
C    3.397493061600 -0.477008944100  0.577317917400
C    2.847386176700 -0.718970686400  2.931315215800
C    4.156693301000 -0.948779102300  3.240244673500
C    5.132776023400 -1.019330206000  2.223757011900
C    4.751853477600 -0.801812965600  0.872222660400
C    5.727971794100 -0.966116091900 -0.134492062000
C    7.020493240300 -1.279049715200  0.183507750600
C    7.405953750700 -1.444246632200  1.522308326100
C    6.478533024300 -1.324160071900  2.518654475600
O    1.223575469700 -1.836706627000 -0.639800701800
C    1.914345196900 -0.893379521400 -1.355516166400
C    1.577192920400 -0.734325379500 -2.713148008900
C    2.219938297900  0.190387657600 -3.482737603700
C    2.951367060900 -0.170560390500 -0.796475164900
C    3.565831199000  0.861874875200 -1.559991170900
C    3.198872278900  1.036750951000 -2.920852368000
C    3.818895006900  2.052874084700 -3.677676472100
C    4.742374176200  2.885552043800 -3.110702446700
C    5.073043351700  2.743685042800 -1.754676168200
C    4.501012916400  1.758525539900 -0.998344544000
C   -2.169160361800 -1.440846602700 -0.288897024800
C   -2.802422512000 -0.914971565000 -1.566174463200
C   -2.009338055400 -0.314922776800 -2.511281873500
C   -2.529601982600  0.154956424800 -3.723495563500
C   -3.861144216800  0.018509456100 -3.991723373400
C   -4.719179621800 -0.592993317400 -3.053871489100
C   -4.193525869400 -1.072184414700 -1.820390320400
C   -5.092174692800 -1.681364163500 -0.915508266300
C   -6.421811674700 -1.807579683500 -1.208689224300
C   -6.933366973500 -1.334402580100 -2.425591054300
C   -6.096345926800 -0.739794091000 -3.325870092700
C   -1.819884920800 -2.913390387800 -0.505821255600
C   -2.099576719400  0.726746859200  1.887831550200
C   -1.687104692100 -0.147127626600  2.858582671800
C   -2.221842294200 -0.130329395900  4.153544240200
C   -3.187535124500  0.776770927500  4.478956307000
C   -3.122909947700  1.669978326800  2.195625423900
C   -3.662009932200  1.688965940000  3.513037177400
C   -4.671893268900  2.619166378200  3.839585929300
C   -5.148735122600  3.497835989400  2.909400763600
C   -4.633095679000  3.474719839000  1.606039030900
C   -3.649696137100  2.589207770800  1.260456282700
H    0.173975742000  1.646921271700 -0.523080046900
H    0.241823835700  1.834783568600  1.233972294200
H   -0.918729164200  2.770280045100  0.298053934100
H   -2.259655360300  0.934198051000 -0.222639098300
H    2.079733850700 -0.696799698300  3.690492316500
H    4.457276720700 -1.106553323400  4.265560408100
H    5.439487895000 -0.853525361900 -1.168466316000
H    7.753417251900 -1.405380294700 -0.599971305100
H    8.433746030900 -1.680466244000  1.755959533400
H    6.757859435400 -1.472292142800  3.552078762300
H    0.815307886200 -1.378891064100 -3.125629912100
H    1.971058365500  0.298731305000 -4.528462097600
H    3.539568437700  2.164907804100 -4.715819085600
H    5.212013813500  3.662756102600 -3.695772460800
H    5.783000470300  3.423927797300 -1.307004514100
H    4.752602961900  1.666671716400  0.047525609400
H   -2.903919823800 -1.374806524900  0.527044382300
H   -0.957945284100 -0.189223312200 -2.304088520100
H   -1.867516106000  0.623562637500 -4.437245020500
H   -4.278883055200  0.374277676000 -4.922896325800
H   -4.729107653200 -2.059506021400  0.027543240200
H   -7.088205949400 -2.276833896500 -0.499167126300
H   -7.986203339700 -1.443912046800 -2.641650410800
H   -6.475724761000 -0.370383595100 -4.268455108400
H   -0.971187475000 -3.003524244400 -1.179004039600
H   -2.672877816500 -3.422451939800 -0.951172730500
H   -1.577539489500 -3.402723996700  0.434863877400
H   -0.927044338800 -0.881727211500  2.628247559800
H   -1.859980287200 -0.839096215000  4.884369004700
H   -3.606620416700  0.807719445500  5.474605257300
H   -5.063230436100  2.618974055600  4.847359164100
H   -5.922423873600  4.206562885800  3.166579104600
H   -5.019814161000  4.164407694100  0.869479135500
H   -3.280564224800  2.597471535000  0.246688207200
