82
-125.29257208
C   -3.438730700400 -1.666080765700 -1.371339784200
C   -2.838922792300 -0.293060731800 -1.069991777000
N   -1.682031984000 -0.421533585900 -0.159841517800
P   -0.352779004700 -1.018906994200 -1.002249073500
O    0.524464915900 -1.546916022800  0.297046783700
C    1.842266833800 -1.857141422400  0.027092863300
C    2.785842307800 -0.854638503800 -0.068283954100
C    2.193755292700 -3.210457769500 -0.108924481400
C    3.489673020700 -3.560843365800 -0.352238910000
C    4.478539554100 -2.570635033400 -0.532563632900
C    4.123861487000 -1.200250008200 -0.411971717900
C    5.108478496100 -0.226685540900 -0.688050409300
C    6.385833469300 -0.590252520700 -1.013575242500
C    6.746888424700 -1.944156903100 -1.081813664700
C    5.809314549900 -2.911825318900 -0.853952998800
O    0.596547935100  0.295489115300 -1.437460066700
C    1.311047323400  1.063835255800 -0.561594345200
C    0.942901076900  2.417668139000 -0.440942733800
C    1.617678839700  3.241568614100  0.410117958000
C    2.377615843900  0.547510582300  0.151657802900
C    3.031932710600  1.374306087200  1.109090869800
C    2.657048070100  2.740004641400  1.222923773800
C    3.317907845100  3.560569978500  2.160724485200
C    4.287035957400  3.052239946200  2.979302698300
C    4.622422858300  1.692234869200  2.904195213200
C    4.011161872500  0.873935254500  1.994998622500
C   -1.852612284700  0.249087686000  1.131625486100
C   -3.111421041800 -0.233263843400  1.832208470400
C   -4.033238748000  0.704330588600  2.229639574900
C   -5.200612987500  0.351746028300  2.919934649600
C   -5.446470541300 -0.957289718300  3.217514990400
C   -4.529564107400 -1.959159271900  2.837378552700
C   -3.343693535800 -1.603599512800  2.134933188300
C   -2.453914960100 -2.640110772900  1.772837978600
C   -2.716532045600 -3.943477788400  2.091000206800
C   -3.884641047800 -4.288963310400  2.786540461900
C   -4.771249420000 -3.314986716200  3.147639919400
C   -0.687816416400  0.155172472200  2.117992194700
C   -2.407006219500  0.467057108400 -2.310176245200
C   -1.976944744800 -0.212876859400 -3.424617922800
C   -1.437043711200  0.447849699800 -4.535181209300
C   -1.302624798900  1.805393126600 -4.527530724700
C   -2.348978983500  1.891046674800 -2.312096637000
C   -1.757936921200  2.555719137700 -3.424961768400
C   -1.635131862000  3.962110837500 -3.414403675400
C   -2.096251147500  4.704847834500 -2.365220420700
C   -2.730888744800  4.063625929400 -1.292101106900
C   -2.856038980700  2.701645397400 -1.271163007700
H   -4.183262726800 -1.586730856700 -2.159941100600
H   -3.915245515700 -2.057547075500 -0.476030628400
H   -2.662768054500 -2.366061789600 -1.671120763200
H   -3.608018427700  0.279098116700 -0.544986671300
H    1.414705067800 -3.951215156300 -0.007491689800
H    3.769011316900 -4.600623157800 -0.437897904000
H    4.838113377700  0.817662232000 -0.650918937400
H    7.125302254700  0.168348055300 -1.225063300100
H    7.763295540100 -2.213161826800 -1.329351931200
H    6.068710171700 -3.958361007900 -0.927310079400
H    0.118879906200  2.769886033700 -1.043056204400
H    1.344850969700  4.283704322300  0.491476235000
H    3.032426487200  4.601074984100  2.224383875000
H    4.788058989600  3.686843123900  3.695591956400
H    5.367477678300  1.290829808600  3.575618806800
H    4.267472517600 -0.173864990900  1.955406733200
H   -1.979582222900  1.325635688500  0.928620279200
H   -3.856898696900  1.750547511300  2.015903863200
H   -5.897291130300  1.124588260200  3.210847428600
H   -6.341688707000 -1.245436455800  3.750023452400
H   -1.561520751800 -2.397232564500  1.221977832800
H   -2.021506550100 -4.719494238400  1.803549393900
H   -4.076934562500 -5.324180564300  3.029394063600
H   -5.677760530900 -3.566263690400  3.680611626700
H    0.215232064800  0.588175353000  1.697939713800
H   -0.487603197600 -0.867798921900  2.418031681900
H   -0.957975902800  0.727281980300  3.005212456200
H   -2.042764252300 -1.287949809900 -3.460410444200
H   -1.108816613100 -0.133097979600 -5.384658116600
H   -0.853360904600  2.325474897800 -5.361661697600
H   -1.167335530200  4.441341381100 -4.263138575800
H   -1.992929534700  5.780226298800 -2.362138894000
H   -3.127984519800  4.654853631100 -0.479036232300
H   -3.376398356200  2.244730329800 -0.444390070100
