82
-125.29849799
C   -1.518205324600 -1.590016431300 -3.270699424700
C   -1.992734732500 -1.353883432900 -1.838961780000
N   -0.894760303800 -1.282960596200 -0.878519711900
P    0.675025555500 -1.174981290100 -1.467368412700
O    1.421660307200 -1.830037411500 -0.145485759800
C    2.799908587100 -1.854574272000 -0.271400549600
C    3.533831258000 -0.720420159300  0.000650950600
C    3.413201055500 -3.054436063500 -0.667222830000
C    4.769337676700 -3.117913946100 -0.797864079700
C    5.561224543700 -1.964423109000 -0.612292351900
C    4.940754370000 -0.743609121900 -0.235170573000
C    5.739977620100  0.417840024000 -0.165492682500
C    7.087109773300  0.361085849200 -0.394379392700
C    7.707301678500 -0.857542221300 -0.706128130500
C    6.956032059900 -1.993117244800 -0.822222200700
O    1.171597998700  0.424540953200 -1.237934737900
C    1.769312504700  1.025455867800 -0.169256463400
C    1.263756444700  2.294202440600  0.184922287800
C    1.797608806300  2.991844610000  1.226150859000
C    2.862010553600  0.495857508800  0.493697023200
C    3.338165054700  1.153882589600  1.666781146900
C    2.812152990700  2.422492230000  2.024449124200
C    3.305790829600  3.079633006200  3.170038242500
C    4.256193178700  2.494846831800  3.959253283700
C    4.738490231600  1.217488052600  3.639419988900
C    4.292920930700  0.563988754700  2.523548820500
C   -1.238411920800 -1.675362354300  0.496290270000
C   -2.590491761200 -1.116261654600  0.896793762400
C   -3.709839212400 -1.912459613100  0.877111825300
C   -4.980296721700 -1.419360462700  1.201751204800
C   -5.140491330600 -0.109741904100  1.544017129900
C   -4.023432728400  0.747225113900  1.604138133500
C   -2.729140939100  0.245034506200  1.293414846800
C   -1.640577052000  1.135382078100  1.403006846300
C   -1.816766649300  2.434282458100  1.790991286700
C   -3.096545148500  2.928299587100  2.075677409100
C   -4.175782708000  2.097703574900  1.981110466100
C   -1.148253759600 -3.198035475000  0.661002953600
C   -2.826393618300 -0.084842819700 -1.799594633500
C   -2.174823276700  1.119316792300 -1.722658501200
C   -2.870409422500  2.329698432400 -1.632065744800
C   -4.235164586100  2.330465495700 -1.613802516700
C   -4.245865078700 -0.107436803800 -1.860597326100
C   -4.950721685000  1.122586707800 -1.738252261600
C   -6.361619272800  1.119655693700 -1.761659825500
C   -7.062342524000 -0.040231718200 -1.927732562500
C   -6.372763100700 -1.250684156100 -2.084876452500
C   -5.006617973100 -1.282705849100 -2.048894551300
H   -0.909504735600 -0.755805620800 -3.612781697300
H   -2.385132998400 -1.676473737700 -3.923094024600
H   -0.931467016400 -2.504285382200 -3.334357049900
H   -2.617037834000 -2.203350401600 -1.546878411000
H    2.784092242500 -3.911976890000 -0.853474493900
H    5.250314440800 -4.043577330500 -1.077258943400
H    5.273428558200  1.364791779500  0.058581613300
H    7.681115949900  1.261745570200 -0.340361631400
H    8.774462577000 -0.886811820600 -0.870307160600
H    7.416359917800 -2.933278390100 -1.090607641900
H    0.454848124800  2.694306789100 -0.407378991200
H    1.432921890700  3.979377118600  1.469542370100
H    2.905366552100  4.052451314400  3.418318737300
H    4.628199358100  3.002013514400  4.837434586500
H    5.464677118100  0.746138288200  4.285692091000
H    4.661586116700 -0.425359170700  2.298049860400
H   -0.475108027300 -1.241524747900  1.149688796300
H   -3.636994674900 -2.952728111900  0.602719028200
H   -5.828484408500 -2.087201642500  1.166437371000
H   -6.117003352700  0.287629451500  1.780463031800
H   -0.642835975200  0.791791408700  1.180562807700
H   -0.961993542700  3.087668726500  1.879750085000
H   -3.219086014400  3.960395706000  2.371069580600
H   -5.170735119500  2.458978442100  2.200938581300
H   -1.717408002600 -3.718255405100 -0.105675320900
H   -1.513717379200 -3.491231667700  1.642372282400
H   -0.109939353600 -3.503849493300  0.571974622200
H   -1.095547981500  1.128206573200 -1.712782499600
H   -2.320024380300  3.256991525200 -1.563408912300
H   -4.787033111000  3.254900452600 -1.518744920200
H   -6.878134185100  2.063483098000 -1.654408962100
H   -8.142612306500 -0.033285452400 -1.948155217200
H   -6.931217016300 -2.163576898900 -2.235873746000
H   -4.506515253200 -2.228942813800 -2.184661807600
