82
-125.29464355
C   -1.740880911400  1.363557600400  3.056479464600
C   -2.110163927400  0.529135959600  1.823355959000
N   -1.258233368700  0.881934641800  0.683531239200
P   -0.310495014400 -0.408415779400  0.096161875000
O    0.849449411700 -0.279973530900  1.290078847100
C    1.983777553800 -1.017647569600  1.039301382600
C    2.949827341700 -0.496895092800  0.204051565100
C    2.135912022700 -2.278625363400  1.638793212600
C    3.258522633100 -3.016447701800  1.399200201200
C    4.246128040000 -2.555746734000  0.502510379500
C    4.084380134500 -1.291124377600 -0.124862616900
C    5.034090516800 -0.896826528300 -1.092486294600
C    6.112542014200 -1.685918264600 -1.382281508500
C    6.298807808300 -2.910093847800 -0.722911731200
C    5.379174545000 -3.337471640600  0.193079129700
O    0.539972564700  0.284849414600 -1.148657393400
C    1.592382161100  1.170093519000 -1.032249490700
C    1.475760957700  2.392475448800 -1.722095012300
C    2.474467591700  3.319733117200 -1.671094820300
C    2.756041498000  0.853822595200 -0.358118550900
C    3.761218661600  1.853223799400 -0.209515284600
C    3.621371882500  3.095308540700 -0.882173338400
C    4.627440334700  4.074418624300 -0.744169255100
C    5.716135891500  3.853035780200  0.051523441600
C    5.833865406700  2.644901295300  0.754871220700
C    4.883134888700  1.670121147300  0.628360370000
C   -1.642756198100  1.993582800000 -0.183233783300
C   -3.115834942800  2.019957505800 -0.542622494800
C   -4.001814376300  2.814877479200  0.142480624400
C   -5.357251425700  2.887991778300 -0.209279724700
C   -5.830904966700  2.169157104300 -1.267719300300
C   -4.968585584700  1.324083399900 -1.996805297000
C   -3.597686433700  1.225981442000 -1.625918852900
C   -2.786316373500  0.321975644400 -2.349074781400
C   -3.287730534600 -0.409172113100 -3.389727617900
C   -4.630731460300 -0.281597645200 -3.772084901000
C   -5.452609150500  0.563360139800 -3.082480545400
C   -1.129212281400  3.329860219100  0.369106497300
C   -2.004911889300 -0.960981778300  2.090280106200
C   -1.172046177800 -1.439637385100  3.073562721400
C   -1.061390953400 -2.809560136200  3.349961263600
C   -1.781151999300 -3.718299321600  2.630687632500
C   -2.793350769500 -1.891616190800  1.349244467800
C   -2.660411006300 -3.282735349200  1.618172963600
C   -3.419267198000 -4.212090344900  0.875878078400
C   -4.289608778300 -3.799037995300 -0.092380600900
C   -4.441457307400 -2.429619847900 -0.347229031400
C   -3.715907754500 -1.506839726200  0.354180692300
H   -0.661615792000  1.404614587900  3.176197278200
H   -2.193870307400  0.933378405200  3.946957570500
H   -2.111804018000  2.378630221500  2.949630023000
H   -3.154700687700  0.760958790600  1.576251725200
H    1.345456730400 -2.633961216100  2.281276575200
H    3.390740172400 -3.979020485900  1.871255886000
H    4.894257408300  0.036953821300 -1.615558449200
H    6.827372663800 -1.369755195300 -2.128032001800
H    7.162521084100 -3.515389195500 -0.956151925100
H    5.497715955800 -4.290254826400  0.689227949600
H    0.586240066800  2.570038765800 -2.307915583900
H    2.384330671800  4.247770920200 -2.216226038100
H    4.512161173700  5.009178546000 -1.274227797300
H    6.482364174200  4.607363438000  0.154814433700
H    6.682456129900  2.489189670500  1.405036820600
H    4.977215376700  0.750324224600  1.185468581400
H   -1.100025821300  1.836841780400 -1.117746117800
H   -3.662850693300  3.413863659500  0.972882259900
H   -6.015322549100  3.527205728600  0.361330116900
H   -6.869564149900  2.230238568500 -1.559756841000
H   -1.755875384200  0.172959388200 -2.064513413400
H   -2.645505169800 -1.097202835100 -3.919976769000
H   -5.008357260100 -0.861947753600 -4.601461100300
H   -6.495115831800  0.660219390300 -3.352208047400
H   -1.349860772600  4.125650058300 -0.339570980500
H   -0.051005209600  3.264523028800  0.498886156800
H   -1.566563412400  3.583582416400  1.327870766100
H   -0.570177275100 -0.758788702600  3.652872471400
H   -0.397837453900 -3.134499036500  4.139473487200
H   -1.694133287800 -4.777525011800  2.826748254700
H   -3.297436619500 -5.263961190600  1.093616046600
H   -4.866118807600 -4.516683131000 -0.657701912500
H   -5.136651960800 -2.099131547500 -1.105084193000
H   -3.860216489000 -0.462922615200  0.134850535900
