82
-125.29236199
C   -0.382819511900  1.625577566900  0.030400910600
C   -1.469782858600  0.593055771700  0.352784086100
N   -1.077663340900 -0.782201328400  0.053656713500
P    0.294204226900 -1.635845109900  0.583608969700
O    1.086374403000 -0.368135413200  1.273042430600
C    2.418584639900 -0.605870223700  1.551350533100
C    3.355549704600 -0.495049908700  0.546569525600
C    2.785942570800 -0.919592976000  2.869860576300
C    4.097173043200 -1.136170391200  3.179408805800
C    5.086274632600 -1.109475665200  2.173299294600
C    4.714714151700 -0.806750565700  0.835796601800
C    5.705578228800 -0.876340097000 -0.167417452900
C    7.002368767100 -1.177845469300  0.144373233500
C    7.377470725400 -1.425933049400  1.473195229200
C    6.436210373700 -1.399782600100  2.463487534100
O    1.219341438500 -1.799273926800 -0.810439171800
C    1.906970546200 -0.794804315800 -1.436224249200
C    1.589739247400 -0.537708951800 -2.784427392600
C    2.225187433500  0.454429243600 -3.470809418400
C    2.921569209900 -0.097201753400 -0.806995918200
C    3.525587484100  1.002845720900 -1.479573751000
C    3.177346487800  1.274301550300 -2.829292287400
C    3.787935801300  2.356770972000 -3.496171321400
C    4.684622959400  3.161912059700 -2.851752080600
C    4.995179705800  2.924236068400 -1.504504087300
C    4.431552272700  1.873472786700 -0.835151972500
C   -2.271488027900 -1.601808541400 -0.183401784500
C   -2.949860962900 -1.189110649400 -1.479074227700
C   -2.179787907300 -0.737083971200 -2.520224454400
C   -2.739109580700 -0.369315455000 -3.749946005300
C   -4.088025320600 -0.462614696800 -3.938505272500
C   -4.923229147500 -0.930983296500 -2.902792104500
C   -4.357161798200 -1.305571282400 -1.651036948700
C   -5.233573694600 -1.778760212000 -0.648327083300
C   -6.580272267100 -1.872281385700 -0.866176731300
C   -7.132226490000 -1.499413888600 -2.100227253600
C   -6.317455397100 -1.038648580700 -3.094463822700
C   -1.961355108900 -3.095679506400 -0.268680184400
C   -1.994908584300  0.785278576600  1.765001811000
C   -1.629447694900 -0.069281999800  2.771458669700
C   -2.061689592000  0.108080672100  4.092527818500
C   -2.874631268700  1.157115202900  4.408484881500
C   -2.879543109600  1.862920181400  2.060026041500
C   -3.307373657100  2.049100491900  3.404854196500
C   -4.169726234100  3.120998971700  3.719695818300
C   -4.615426117100  3.975117558300  2.751913346100
C   -4.221192067800  3.780361041600  1.420796444900
C   -3.378608508100  2.756408171000  1.085663486200
H   -0.839357916600  2.598457139000 -0.135714430800
H    0.148598374500  1.331740073000 -0.872215043100
H    0.330003188100  1.722397188300  0.842947900400
H   -2.300116924900  0.783620299500 -0.340829730600
H    2.009282340700 -0.971780662900  3.618130134700
H    4.390333870300 -1.358113164900  4.194935353000
H    5.425615166300 -0.699627777400 -1.194738650700
H    7.746669876600 -1.230812658000 -0.636770853100
H    8.408562707200 -1.651308134300  1.702969472200
H    6.707938728100 -1.612946615200  3.487527326700
H    0.849117354800 -1.164261219200 -3.258825197100
H    1.990524591400  0.637228406100 -4.509424000400
H    3.522915318900  2.541733377500 -4.527608408700
H    5.147698681500  3.990114911100 -3.368022221300
H    5.682832814200  3.582592263200 -0.993718769100
H    4.667489094300  1.708612870600  0.205371337200
H   -2.965426177800 -1.434856045700  0.652713125600
H   -1.114768522800 -0.649042908600 -2.374585215800
H   -2.094843832400 -0.012758071100 -4.540705255500
H   -4.536813621400 -0.183012493300 -4.881133853800
H   -4.839220363400 -2.078410642500  0.310207110900
H   -7.229165226200 -2.237662325700 -0.083168008700
H   -8.198303862800 -1.580335204300 -2.255343173100
H   -6.727968573400 -0.749150494900 -4.051808454000
H   -1.140995148600 -3.266525429600 -0.963131424100
H   -2.840856513900 -3.625112634600 -0.630803456000
H   -1.690661469300 -3.497383328700  0.704897515500
H   -0.987349950100 -0.911296017600  2.551841637100
H   -1.740302562900 -0.590019929100  4.852147680400
H   -3.206668249800  1.315599249400  5.424670123000
H   -4.474998898400  3.248796115700  4.748914008700
H   -5.275735075300  4.793212551900  3.000531039300
H   -4.590808005800  4.446730781100  0.654535204900
H   -3.105635607600  2.629482054800  0.049715242600
