82
-125.29570697
C   -2.529768113600 -1.023794772200  2.853563999600
C   -2.447702589600 -0.901134754100  1.326775077400
N   -1.396728977900  0.020983991100  0.902412300400
P   -0.259445873400 -0.630074906400 -0.156671457800
O    0.925401126400 -0.956252181800  0.992248039700
C    2.112381919100 -1.377430695500  0.443438690800
C    2.989865985900 -0.443032411400 -0.065643603300
C    2.399616805500 -2.752196399500  0.404321760800
C    3.565513048100 -3.189983262100 -0.151819669900
C    4.463118514900 -2.279959677800 -0.751038810100
C    4.167294822600 -0.890484372100 -0.730509808600
C    5.029283153700 -0.012238506900 -1.422543791000
C    6.150262738300 -0.477223607000 -2.052810332200
C    6.468764558800 -1.842982078200 -2.026772318800
C    5.636440374500 -2.724430954600 -1.395890007900
O    0.442700025700  0.699400719300 -0.856043378200
C    1.457999900300  1.492841193900 -0.368722620700
C    1.235167768200  2.884309647400 -0.416775282100
C    2.173233110000  3.758303571400  0.045505468000
C    2.671357369500  0.991794946900  0.062113203800
C    3.615359298700  1.887254901300  0.647579440900
C    3.365443861900  3.284120452800  0.631462006800
C    4.308494565100  4.163348573600  1.202977320800
C    5.441827032900  3.685131778700  1.798609214800
C    5.668681070700  2.302379562100  1.858580193400
C    4.780612114700  1.426104596500  1.298143994300
C   -1.474198745100  1.434454994300  1.262100633900
C   -2.901310615400  1.942198002100  1.245136923800
C   -3.544891638300  2.331221292600  2.392798283700
C   -4.863466035900  2.809980469400  2.374084081500
C   -5.543426596800  2.909421360600  1.195851620000
C   -4.922206057900  2.542441572600 -0.016371632100
C   -3.586877147400  2.051520342100 -0.001151958300
C   -3.000755350500  1.702035682900 -1.239064317800
C   -3.686215549700  1.840228725500 -2.415111157000
C   -5.001536972400  2.325142844000 -2.422904467200
C   -5.605219354200  2.663883758000 -1.245172041200
C   -0.698902318600  1.735448876700  2.549776754800
C   -2.184183792200 -2.244077555000  0.677690918900
C   -1.366473278300 -3.155235945500  1.305085855500
C   -1.114562004000 -4.420631280000  0.759802503200
C   -1.689215017000 -4.785340148100 -0.422791870900
C   -2.788192047100 -2.598762849100 -0.563801942000
C   -2.534669614600 -3.889055096800 -1.108555359500
C   -3.130852300500 -4.258200221400 -2.333015009900
C   -3.941978495300 -3.393275701600 -3.010611227200
C   -4.183345301800 -2.115779598400 -2.486978523600
C   -3.623259050000 -1.731125171900 -1.299968278800
H   -1.540181972100 -1.126991333100  3.289432573700
H   -3.128892088200 -1.893445782900  3.115429742800
H   -3.008431248100 -0.142421567900  3.270908334100
H   -3.422170782600 -0.521812006900  0.990192367000
H    1.674421971800 -3.433485441700  0.821572206400
H    3.802068234600 -4.243814385400 -0.169071116200
H    4.787531608100  1.039067234600 -1.461142500500
H    6.796144675700  0.209409968300 -2.580519412900
H    7.364015467000 -2.191546653800 -2.520542102000
H    5.856827379400 -3.782466004400 -1.390659733300
H    0.310297113400  3.239555866400 -0.848103710800
H    2.000794862300  4.823052986200 -0.009437080700
H    4.108674816000  5.224928516600  1.169504393200
H    6.159118538300  4.363284195700  2.237164244900
H    6.551298774800  1.929453950000  2.357545882700
H    4.959253919400  0.363636589100  1.364718849000
H   -0.949373353200  1.978050634900  0.470029737300
H   -3.039432145600  2.284434365000  3.344232389600
H   -5.330476417700  3.099252999300  3.304496305500
H   -6.559477112500  3.276618337500  1.169919190000
H   -1.997742151500  1.304856086500 -1.268125364300
H   -3.211948036100  1.566897334200 -3.346677489100
H   -5.529246102400  2.425465662200 -3.360351731500
H   -6.619878424100  3.036784150000 -1.234043279500
H   -0.684827587600  2.808258748500  2.731828917200
H    0.326517917200  1.393643903900  2.421642986100
H   -1.115116497600  1.228877449900  3.413780491300
H   -0.898855234100 -2.901910557200  2.242957909600
H   -0.467689788800 -5.105194852800  1.290135081600
H   -1.506246885900 -5.760352161200 -0.851292487100
H   -2.928275521000 -5.244703095800 -2.725809314700
H   -4.395266591900 -3.682729264000 -3.947522155200
H   -4.817812880300 -1.429152338500 -3.028312019500
H   -3.818521092700 -0.735555517400 -0.934638335200
