82
-125.29830242
C   -1.428944549700 -1.791123323300  3.165840625500
C   -1.239715247000 -0.729709268400  2.076682014800
N   -0.930646998400 -1.316378469000  0.761126691700
P    0.562147838200 -2.170719136400  0.684698779100
O    1.402375274900 -1.007757599000  1.513620616100
C    2.775301602400 -1.138487781700  1.424637407100
C    3.427081134500 -0.664497172000  0.306871779700
C    3.472800805000 -1.723855635600  2.492998840800
C    4.830911817300 -1.844812093100  2.434131399300
C    5.538720249000 -1.442894095000  1.281579760200
C    4.832254602500 -0.864452551900  0.192795027000
C    5.549008223300 -0.557222901100 -0.984148469400
C    6.898732378700 -0.762825674500 -1.059360925700
C    7.603185483200 -1.285818710900  0.035362020000
C    6.934003139200 -1.625562083300  1.177271756200
O    1.106737146200 -1.857640864600 -0.851432636500
C    1.558826550400 -0.646114704100 -1.318358570700
C    0.925538245500 -0.121732571300 -2.461205648800
C    1.321585959100  1.073144091200 -2.986339133700
C    2.647592343800 -0.004674887800 -0.759633995500
C    3.003477389700  1.290936854300 -1.232334618800
C    2.334849335100  1.830516456600 -2.362724468100
C    2.699991680700  3.108348242900 -2.835758022500
C    3.664236009400  3.841456769200 -2.202709823500
C    4.294912595400  3.328814511900 -1.059115699800
C    3.974635949100  2.086379020100 -0.585772455200
C   -2.094131320300 -1.960224536000  0.140619749100
C   -2.929691740000 -0.942014070900 -0.614814658800
C   -2.297947368700  0.070696715600 -1.287721103400
C   -3.009333810400  1.041646083400 -2.001554589400
C   -4.372417234900  0.997912311600 -2.037021698900
C   -5.069794498200 -0.036097133600 -1.379299317500
C   -4.347873030900 -1.036525677600 -0.669728870600
C   -5.092343826700 -2.072295795500 -0.062168425500
C   -6.457615874600 -2.106877833600 -0.129765730500
C   -7.163422910300 -1.105859771800 -0.811640759800
C   -6.478821464700 -0.096019312300 -1.424992392000
C   -1.717883818500 -3.088269996600 -0.820718872700
C   -2.385210344500  0.250650923100  1.950324067200
C   -3.641001238100 -0.046990657700  2.414355805800
C   -4.705761717100  0.856851957700  2.291655896800
C   -4.512291746100  2.069380217700  1.699281326800
C   -2.155614144500  1.516194835900  1.337007366700
C   -3.238449655600  2.428020677800  1.211640228900
C   -3.025096394700  3.679420023000  0.596510978100
C   -1.794103493000  4.028277649700  0.118648851700
C   -0.722268447000  3.132601573500  0.237932880200
C   -0.898562795500  1.911907413300  0.828375446300
H   -0.496646588600 -2.345165768700  3.271270707000
H   -2.215335842600 -2.503811566500  2.930167438100
H   -1.661633796200 -1.312296010400  4.114087157900
H   -0.357475703700 -0.155117464000  2.368215352700
H    2.909268924000 -2.060830440800  3.350169842400
H    5.377658471100 -2.276402703500  3.259471542200
H    5.015450598000 -0.166766698300 -1.837180766400
H    7.430431052400 -0.526056280000 -1.969388001300
H    8.671013562300 -1.430933036500 -0.037759080500
H    7.461207827600 -2.052239354200  2.018599276300
H    0.138755559600 -0.701896055500 -2.919493866900
H    0.845455808400  1.462990313700 -3.874020145500
H    2.190593786900  3.500329136800 -3.704694658500
H    3.937151004800  4.820573213000 -2.568481117600
H    5.036289938300  3.925990425300 -0.548369517200
H    4.456471996200  1.707579350000  0.303015501500
H   -2.711447361200 -2.394825620600  0.933820939900
H   -1.223089472900  0.138380576200 -1.240918086100
H   -2.468589078400  1.827805114700 -2.507529617000
H   -4.938116480500  1.748851759900 -2.570320230400
H   -4.581333104700 -2.865767437600  0.461081654600
H   -7.001935712900 -2.911825620000  0.343550013500
H   -8.242461980300 -1.144435936000 -0.851559427600
H   -7.007834077400  0.678048793900 -1.963522181500
H   -1.075835360300 -2.717831825900 -1.614264539400
H   -2.623900351100 -3.492907593000 -1.268699939500
H   -1.198160411400 -3.888371399700 -0.295654494900
H   -3.840148334000 -0.995918693000  2.886756812300
H   -5.679288687500  0.576630776300  2.667161335800
H   -5.327735451100  2.770647953200  1.592774712100
H   -3.862031372700  4.358385639200  0.509674438400
H   -1.638198418700  4.988459601000 -0.351997430200
H    0.249513174700  3.411766888900 -0.144043291900
H   -0.059204992300  1.237795159100  0.890778385900
