82
-125.29315822
C   -2.166291989500  4.041072893800 -1.026414801400
C   -2.301051477000  2.523754835000 -1.186607454200
N   -1.365613067500  1.752350651500 -0.354296535400
P   -0.085555827900  1.183667219800 -1.282333736400
O    0.160835775600 -0.256153679900 -0.516560838000
C    1.249289674000 -0.977832824600 -0.953870659400
C    2.522074664700 -0.630411375500 -0.552962007900
C    1.017184461800 -2.084291586300 -1.788633995700
C    2.064368036500 -2.825523797800 -2.250772286600
C    3.392812503200 -2.447661295500 -1.958799683200
C    3.630802312000 -1.327655588300 -1.118235498000
C    4.965713643400 -0.912087551100 -0.921967692600
C    6.007813673600 -1.599663981700 -1.480290262600
C    5.772557126400 -2.738917535800 -2.263631229600
C    4.490399618300 -3.146807207700 -2.503340680000
O    1.297076204800  1.990196787300 -0.780439916000
C    2.154528839000  1.699446638000  0.241298720200
C    2.503332938500  2.780466858200  1.077931603700
C    3.341533897000  2.600818911400  2.137134466900
C    2.723765527400  0.453432058000  0.426200671300
C    3.514566295600  0.228431728000  1.591791710800
C    3.832059457500  1.314903195300  2.448542704300
C    4.622721626400  1.087490237000  3.594012753000
C    5.059938399500 -0.169076939300  3.906580086700
C    4.705985403700 -1.253144973100  3.090035864900
C    3.954156705400 -1.060912159600  1.963788324100
C   -1.600941357000  1.677099361700  1.092455542200
C   -1.090484403700  0.372600858100  1.682899344100
C    0.058806884800  0.338578570700  2.433700610300
C    0.563261167800 -0.856146901800  2.965687136200
C   -0.078812904800 -2.036933582200  2.738420875000
C   -1.273344928900 -2.058928884300  1.989728481500
C   -1.802252800600 -0.844819301400  1.470126133100
C   -3.013616189000 -0.917604792300  0.752078325000
C   -3.649523262900 -2.108441080900  0.534259762900
C   -3.111375520600 -3.303784208300  1.029127624700
C   -1.949934405600 -3.273103700300  1.747674054100
C   -1.042057709100  2.892072159200  1.845783262700
C   -3.726957400000  2.025037559700 -1.075559952500
C   -4.644808977900  2.654917212400 -0.271291408800
C   -5.977770618400  2.225469871100 -0.191060391600
C   -6.402155554600  1.163419131700 -0.934232733800
C   -4.137711332900  0.883979942900 -1.828235110500
C   -5.497573442900  0.469286528700 -1.764862075300
C   -5.922597301900 -0.642579909900 -2.522792469300
C   -5.044529664400 -1.339598221000 -3.302578133700
C   -3.696486949300 -0.956002200500 -3.343013152000
C   -3.256054405000  0.121866596400 -2.626429241400
H   -2.741173104700  4.531371687700 -1.809420682500
H   -1.118655453600  4.312122253900 -1.139023653000
H   -2.516703333100  4.406982059200 -0.068121790400
H   -1.972547003000  2.328175645300 -2.215124291200
H   -0.006413960200 -2.327094912400 -2.031234871400
H    1.891317434900 -3.691601909300 -2.872480138500
H    5.159636994200 -0.028144705800 -0.333699799300
H    7.021966307200 -1.262329377700 -1.323150803500
H    6.607689814500 -3.277500185300 -2.686942434200
H    4.293553379600 -4.006783472900 -3.127560930700
H    2.100745515900  3.754072456600  0.837343300100
H    3.618177361700  3.435716214300  2.764529557800
H    4.865554357100  1.929141984800  4.227296299400
H    5.662901108300 -0.337348479800  4.786947491400
H    5.025567043300 -2.249079131300  3.360826878700
H    3.670951551200 -1.907152528800  1.356749689700
H   -2.691489016700  1.692416932800  1.223568196300
H    0.626077158700  1.236340796800  2.618118818800
H    1.476625527900 -0.826310656500  3.542114977000
H    0.314575939800 -2.966755317700  3.125001753900
H   -3.452769344000 -0.018308304200  0.357835248300
H   -4.572910973000 -2.127788554800 -0.026675415300
H   -3.620711891000 -4.238895720700  0.844732158800
H   -1.525299383200 -4.184447092000  2.146173991200
H   -0.002369442700  3.066112531200  1.586760866900
H   -1.121646521000  2.724479011600  2.917818268900
H   -1.605390530000  3.787209485100  1.604791388100
H   -4.357185397000  3.510512309000  0.319261176700
H   -6.661992276300  2.752899767100  0.457545453300
H   -7.430452155900  0.833716478900 -0.893704559200
H   -6.961907012800 -0.935230242900 -2.466697863300
H   -5.376352495200 -2.190393349400 -3.879852601300
H   -3.001958692400 -1.522554157600 -3.946263459100
H   -2.206059763300  0.374507321800 -2.655120284700
