82
-125.29295057
C   -3.361163169700 -2.811400422700 -1.202229454700
C   -3.188587267300 -1.289374729700 -0.991841861300
N   -1.906969535200 -0.934632129400 -0.380545173400
P   -0.633561721900 -0.399053492900 -1.333733402700
O    0.462390875500 -1.518608318100 -0.740990498200
C    1.778789892400 -1.324321628100 -1.081386154000
C    2.530663510900 -0.380937349300 -0.413020513900
C    2.335117311200 -2.129649665200 -2.090134861900
C    3.644874004300 -1.982809126900 -2.438856291500
C    4.436706915900 -0.977823294000 -1.842694465200
C    3.872470955900 -0.147622905600 -0.837377400700
C    4.654801197700  0.914206951800 -0.333826212800
C    5.942107482500  1.103565594600 -0.755121677500
C    6.516424357400  0.245287280200 -1.703863213100
C    5.772903832000 -0.766815301300 -2.242666198100
O   -0.041628688400  0.960851846100 -0.579306111400
C    0.748061215800  1.077623372100  0.534672447900
C    0.329853834500  2.021223009800  1.494415862800
C    1.032956938400  2.202593468300  2.646849055500
C    1.940772877700  0.396047535300  0.693996192500
C    2.609477783800  0.477791132000  1.952075039700
C    2.152937747800  1.394957245600  2.933919178800
C    2.825664344300  1.476524551300  4.170016817900
C    3.884550994500  0.658218039200  4.448099272800
C    4.307123713700 -0.283676219200  3.498806867200
C    3.689002404100 -0.370254102000  2.281748249000
C   -1.756225056100 -0.975045448300  1.070810214500
C   -2.197689135200  0.296099981100  1.773206153500
C   -2.980986480200  1.223145223300  1.136455835800
C   -3.472890961700  2.356978014800  1.799011058400
C   -3.176812393700  2.563285697100  3.114505985200
C   -2.322271290900  1.672708340500  3.797977409300
C   -1.801003439800  0.534927367500  3.121716638000
C   -0.873795528100 -0.271260574900  3.819676643400
C   -0.523583229000 -0.000304483700  5.113271361300
C   -1.083663295500  1.091192566300  5.790992745500
C   -1.957573452900  1.913688151400  5.139581243500
C   -2.464712099300 -2.176831954000  1.707578988400
C   -3.434410109700 -0.519610214600 -2.275474720200
C   -4.394397651400  0.464556712400 -2.249553595300
C   -4.727368902300  1.216516726700 -3.383499392500
C   -4.105517414700  0.964960824300 -4.571148586000
C   -2.780161821200 -0.804742850900 -3.507652410800
C   -3.129379232100 -0.048372704600 -4.661065008600
C   -2.494804037500 -0.320449228300 -5.893061128900
C   -1.551200637800 -1.300586703700 -5.998950080600
C   -1.199480768800 -2.047619128400 -4.865288132000
C   -1.793060435500 -1.804980340700 -3.658346139200
H   -3.810973247100 -3.011051861100 -2.171602468100
H   -4.008201636000 -3.235898519300 -0.439208887400
H   -2.402738875000 -3.320470172300 -1.151080513000
H   -3.968141654100 -0.968951079400 -0.290379509500
H    1.700014092200 -2.864583424600 -2.560785754000
H    4.085457254300 -2.615228046800 -3.195529309100
H    4.221042092900  1.592599962500  0.384731526600
H    6.522944777900  1.923991573400 -0.359379926300
H    7.538811974800  0.401151831300 -2.015551447800
H    6.193147787300 -1.418275362800 -2.995659772200
H   -0.553586395000  2.600289828600  1.275703839000
H    0.716731385500  2.940360392700  3.368919973900
H    2.472857174100  2.191547192700  4.899318909800
H    4.391962978700  0.721527861500  5.399643419900
H    5.125364914200 -0.948006737100  3.736209813900
H    4.014783047600 -1.108207603500  1.563974402000
H   -0.680061288600 -1.096226898300  1.241992805700
H   -3.211680869600  1.101055900700  0.090358488200
H   -4.093991093100  3.055470930300  1.256287675100
H   -3.569910906100  3.419281944300  3.644586460100
H   -0.399747358600 -1.102297600200  3.321220310600
H    0.197264138500 -0.627247438000  5.618035512400
H   -0.805441847200  1.284190817600  6.816943792700
H   -2.377728077500  2.776024403000  5.638607079000
H   -3.542603554600 -2.098626616300  1.594885866700
H   -2.245688534400 -2.208732218100  2.771187518500
H   -2.119801431400 -3.101376731200  1.253727826500
H   -4.930429613900  0.667074937600 -1.332026285900
H   -5.483673777100  1.983935931300 -3.305838464300
H   -4.354339764200  1.529277631800 -5.458428907800
H   -2.774403894200  0.269830275000 -6.754378750800
H   -1.070878117300 -1.503760408900 -6.944989744800
H   -0.449618140600 -2.820357161500 -4.953517006400
H   -1.497160671000 -2.388363892500 -2.802925148400
