82
-125.29532386
C   -0.299980840200  1.711265121800  0.706660903900
C   -1.435217616000  0.813313961000  0.209309515400
N   -1.143035658400 -0.625662936700  0.242308740800
P    0.306377014000 -1.389811521100 -0.127057550400
O    1.219067603600 -0.691844461800  1.077881364400
C    2.530809372900 -1.116644141800  1.059852680200
C    3.418117521400 -0.596018616200  0.140425046700
C    2.926476908700 -2.090478943200  1.992928911600
C    4.207650803900 -2.557150099800  1.996686629300
C    5.127794749500 -2.128835067300  1.015641890900
C    4.727629249200 -1.156691072300  0.060682520800
C    5.630147415900 -0.825245721000 -0.973003575200
C    6.879431410000 -1.379511422000 -1.022588019700
C    7.293568587300 -2.294139064300 -0.043383596900
C    6.430168611500 -2.666586589400  0.948324338600
O    0.961992146700 -0.580558913500 -1.442438642800
C    1.853505979400  0.450594845700 -1.496573793300
C    1.553789270500  1.453622678500 -2.443990882000
C    2.370730012600  2.531484690700 -2.600658799900
C    3.010797301000  0.513676734000 -0.741695188000
C    3.807735868900  1.696876425700 -0.812755551100
C    3.497033950900  2.700685058100 -1.767076619100
C    4.305858195700  3.852600059600 -1.851219048400
C    5.360816393900  4.033274975400 -1.001342211000
C    5.633063822000  3.073253647500 -0.016337108900
C    4.877631558300  1.936848566300  0.076972942200
C   -2.347939591600 -1.441720380600  0.062785853500
C   -2.999366505800 -1.209951543100 -1.286980644400
C   -2.203816362500 -1.251122827000 -2.403509180900
C   -2.716235204200 -1.024052142500 -3.686468559200
C   -4.045058568700 -0.754636378600 -3.848398725300
C   -4.909154873500 -0.722298632800 -2.734243692900
C   -4.392441479100 -0.961631402700 -1.428524417700
C   -5.305476705400 -0.945015463900 -0.349890750600
C   -6.634759068800 -0.692906416000 -0.544852306700
C   -7.134209361000 -0.441357870100 -1.830769787600
C   -6.285980952400 -0.458914194300 -2.900470640000
C   -2.079435542900 -2.931694241400  0.257281684700
C   -2.673474618800  1.163717460700  1.012920739800
C   -3.668663293600  1.876079282900  0.392614485000
C   -4.808421660700  2.308714735700  1.083984527800
C   -4.950824717200  2.024666669500  2.411020255600
C   -2.805392848600  0.840722354400  2.393313521100
C   -3.961077565500  1.286267416900  3.093336608600
C   -4.102716542500  0.976027768100  4.463080973800
C   -3.153692404000  0.247507827200  5.122170547100
C   -2.023039607700 -0.211355479100  4.430519317800
C   -1.853411845600  0.075234788400  3.104341295900
H    0.576742121800  1.635535602700  0.072092565900
H   -0.017766731800  1.468005003000  1.725909051600
H   -0.646475709500  2.743829585100  0.679944391300
H   -1.639716353600  1.095705098400 -0.838121336100
H    2.190472061300 -2.443207332500  2.699887187600
H    4.523851601300 -3.286481864400  2.727803010000
H    5.318832138900 -0.133452020200 -1.740827827000
H    7.554253189700 -1.116474614000 -1.824102762800
H    8.288575799600 -2.711876129200 -0.089773659000
H    6.726123414900 -3.391876689500  1.692840967400
H    0.660783749800  1.328785526700 -3.038306220300
H    2.147996976500  3.284232939900 -3.342574105100
H    4.064367577600  4.596892934800 -2.596806018200
H    5.976184773700  4.918306644500 -1.070333728200
H    6.444465498000  3.238479488200  0.677510085700
H    5.089610387900  1.216227659800  0.851944487100
H   -3.033219777600 -1.132717401800  0.855712697000
H   -1.146744279100 -1.451722002200 -2.289563047800
H   -2.051724533800 -1.060932423600 -4.537799844400
H   -4.456249352300 -0.568428417700 -4.830505112800
H   -4.958473194100 -1.137904990600  0.653167535200
H   -7.310058556900 -0.685629093300  0.298517149700
H   -8.186895768900 -0.239746250500 -1.966107882600
H   -6.656291894000 -0.274439822200 -3.899340227700
H   -1.542497033400 -3.351322155000 -0.589421420300
H   -3.029841885300 -3.452955782300  0.355005187800
H   -1.495059451800 -3.088084892700  1.161877569900
H   -3.577025237400  2.115339601300 -0.658104161500
H   -5.566811727200  2.865875029200  0.553752447200
H   -5.821940077300  2.355890719400  2.958243196400
H   -4.984541178300  1.326955656400  4.980899361900
H   -3.269888182600  0.015291770400  6.171076267600
H   -1.282615639200 -0.798654132300  4.954859514500
H   -0.988780960300 -0.303367710700  2.584215980200
