82
-125.29504562
C   -1.014225405400  1.252413710600  2.546301698800
C   -1.388324459800  1.464057143500  1.074015025800
N   -1.705291240800  0.176467809200  0.449332679400
P   -0.557091110600 -0.730530970000 -0.382880824200
O    0.462465503600 -0.996967174200  0.912514975900
C    1.638430062700 -1.626030985400  0.567344385000
C    2.685615957800 -0.883185733800  0.064516032600
C    1.740156452200 -3.016016257500  0.744171773800
C    2.896144772800 -3.661926619000  0.417708614400
C    3.973835099300 -2.958687790800 -0.162842234400
C    3.863858537100 -1.557448970200 -0.368622520500
C    4.910152530100 -0.896559250700 -1.047806525500
C    6.028736245400 -1.574247384600 -1.447579540600
C    6.160436422000 -2.947070010000 -1.192138567800
C    5.148711919800 -3.624304581400 -0.571238031600
O    0.414527711600  0.374034321600 -1.184986448800
C    1.448808487000  1.129448829800 -0.687649798700
C    1.383176413500  2.518010106700 -0.932407519100
C    2.362615939000  3.351098737800 -0.481878041100
C    2.542592119400  0.579744376100 -0.045955262600
C    3.517396537600  1.451897119800  0.523009362500
C    3.432918112200  2.849070934900  0.288648897800
C    4.410450940900  3.703954141100  0.838230459700
C    5.416315772500  3.208206932300  1.619745861900
C    5.471980554200  1.834632083800  1.897060198700
C    4.547873463200  0.978543490500  1.364096994600
C   -3.100025833000 -0.215868972700  0.258788189500
C   -3.184811229200 -1.573526949500 -0.400972119400
C   -3.813906911700 -1.657595835700 -1.618538740000
C   -4.009971226700 -2.883041447300 -2.270370704700
C   -3.582261596700 -4.040023876100 -1.688123162700
C   -2.927329678200 -4.010081700900 -0.438629878900
C   -2.710504142400 -2.766508555500  0.217764391200
C   -2.022022578200 -2.786869954300  1.450458152400
C   -1.607465344200 -3.961898008700  2.015725048200
C   -1.843950048700 -5.186419006200  1.375299904200
C   -2.483310846300 -5.204160226900  0.168373138700
C   -3.941714859000 -0.199395159600  1.543241612900
C   -2.443227860000  2.535906372400  0.853188689200
C   -3.048444230900  3.156591181900  1.919689694100
C   -3.989529598500  4.182209333900  1.750879189800
C   -4.333250059900  4.602676529200  0.500140028800
C   -2.786029464700  2.964460862900 -0.464357701900
C   -3.740828346400  4.006971223200 -0.631859883200
C   -4.083970794500  4.437901723600 -1.931457815400
C   -3.515151541500  3.872350603600 -3.036657414700
C   -2.577853582500  2.841616111200 -2.880425348400
C   -2.226481355400  2.402044932100 -1.633801684800
H   -0.223828536700  0.508246166800  2.597437872900
H   -1.857993905500  0.892002902000  3.127722409900
H   -0.639484468000  2.178161251200  2.977802578400
H   -0.476775531800  1.829692119700  0.581980173100
H    0.884314897900 -3.540184483600  1.141033869100
H    2.989439594600 -4.727052539000  0.570782669600
H    4.814476134600  0.157036843900 -1.261801612200
H    6.817873796300 -1.052215494200 -1.968910957900
H    7.056197603700 -3.464173673000 -1.503544781900
H    5.225883767500 -4.687366355700 -0.392626294200
H    0.541157046000  2.896611825900 -1.493001166700
H    2.313699914700  4.410326722600 -0.687642625100
H    4.339603509600  4.763328111600  0.636160260800
H    6.161384888800  3.868447029700  2.038929168500
H    6.250396859600  1.453617620700  2.542007433800
H    4.593268585700 -0.074382144400  1.597312803300
H   -3.578218819700  0.502522176000 -0.426158424900
H   -4.177807346600 -0.755511554600 -2.091195533000
H   -4.507781094100 -2.898059334500 -3.228886909900
H   -3.736008186900 -4.994066303900 -2.171805396400
H   -1.796121461700 -1.859202787100  1.947410040500
H   -1.087243638200 -3.949640471300  2.963642274800
H   -1.509671960000 -6.105337372700  1.835204814400
H   -2.660119658800 -6.138381272900 -0.345934442600
H   -4.059010883400  0.817474308100  1.906049080600
H   -3.510822401200 -0.811975887100  2.327076689100
H   -4.928595155900 -0.593246119200  1.306967896500
H   -2.809481279800  2.866623621200  2.929697185200
H   -4.435120264700  4.633403946700  2.625673799700
H   -5.055241016700  5.393786672800  0.356687832100
H   -4.812187630600  5.230610179300 -2.032406665900
H   -3.782558532400  4.208506195000 -4.028031292200
H   -2.131019084000  2.388456068200 -3.754122607800
H   -1.516606114600  1.596696847100 -1.551938872900
