82
-125.29470410
C   -0.587815277100  2.128954956900  2.331906306200
C   -1.209769453500  1.580804263600  1.042992194700
N   -0.973345996700  0.142544122000  0.965237477900
P   -0.004153718700 -0.544532278600 -0.252401177900
O    1.145949849300 -1.164369303100  0.801851221800
C    2.278862951000 -1.638024964100  0.184731731700
C    3.251102583900 -0.745505367800 -0.216150444700
C    2.427737996200 -3.020975293200 -0.014422643500
C    3.544898532500 -3.506630118300 -0.628826467000
C    4.529499232500 -2.628513455500 -1.129228291900
C    4.376240559300 -1.228299387200 -0.942775542900
C    5.325785476800 -0.366341713600 -1.533653740100
C    6.396145874500 -0.865347427000 -2.222846458300
C    6.574650631400 -2.250123928900 -2.359405967700
C    5.654599269000 -3.110987618700 -1.830544980800
O    0.854511352300  0.744070136900 -0.834555359700
C    1.938024580700  1.366238078500 -0.249142782700
C    1.863685501300  2.766609827500 -0.114847612900
C    2.892814695600  3.469758873100  0.437512566700
C    3.089745593200  0.687463809300  0.098340699300
C    4.126427057600  1.394389513400  0.776781379200
C    4.029816498900  2.801434451400  0.936508315600
C    5.067751609700  3.497573754100  1.590479015600
C    6.146694014400  2.830903315300  2.099234580600
C    6.220847050000  1.434604883700  1.987679682000
C    5.238407463000  0.734109909900  1.343873159400
C   -1.905610411900 -0.733751855600  1.680175334700
C   -2.515858231300 -1.745360528700  0.733061422500
C   -1.716457546800 -2.759050619500  0.259969786400
C   -2.158422574300 -3.663332218800 -0.713843451000
C   -3.421752741200 -3.556357261700 -1.217348477800
C   -4.304413674300 -2.575609911000 -0.721125722600
C   -3.863122460700 -1.662664991200  0.280229596700
C   -4.816797507100 -0.754762714000  0.791950163100
C   -6.101608820300 -0.725136646800  0.326436707100
C   -6.515167666200 -1.596795643000 -0.689447627800
C   -5.630951768700 -2.504737199600 -1.196767980800
C   -1.227486901400 -1.411677041400  2.877284651900
C   -2.664444607000  1.966000693900  0.843796741200
C   -3.405224828800  2.517401863900  1.860499954900
C   -4.737786246200  2.914578967300  1.674520475900
C   -5.339035125000  2.755890835100  0.460725315200
C   -3.275575527800  1.783794814300 -0.431547798100
C   -4.628593986300  2.183435867100 -0.614530896000
C   -5.244260573400  2.003227411800 -1.870409535500
C   -4.563074627900  1.447620977100 -2.915245223700
C   -3.228215314400  1.056435558700 -2.743211122800
C   -2.602810834100  1.224419135000 -1.539108667300
H   -0.683427117800  3.211553084600  2.372485296200
H    0.469757877000  1.872476213000  2.344139906800
H   -1.049836047900  1.691430561500  3.212888797900
H   -0.662116177500  2.029945423200  0.210048716800
H    1.647703594500 -3.679432594400  0.337417649000
H    3.675402195000 -4.570198365800 -0.765018317000
H    5.191755387200  0.701172518300 -1.446723440300
H    7.110706939900 -0.190689429500 -2.671468128600
H    7.432597550700 -2.626944548800 -2.896664701300
H    5.766773547800 -4.179176611400 -1.950534968100
H    0.981497281500  3.271369706000 -0.479996360800
H    2.835893485400  4.545079405400  0.520088738400
H    4.984720727200  4.570520793400  1.689691770600
H    6.937754494400  3.369127392500  2.600480742700
H    7.060893491200  0.910802601700  2.420056270900
H    5.300356992800 -0.341534138800  1.278706669600
H   -2.690465431300 -0.087236012500  2.077017813900
H   -0.723797291800 -2.884402361000  0.661667969300
H   -1.488212419800 -4.434353527700 -1.065060466800
H   -3.772830031900 -4.232046733400 -1.984252467100
H   -4.544726381700 -0.073118292500  1.581569874900
H   -6.807255220300 -0.023364339800  0.746341247600
H   -7.530703402300 -1.551587218100 -1.054886254000
H   -5.936197803300 -3.198223123000 -1.967905304300
H   -1.912935884700 -2.125035200300  3.330824912700
H   -0.950433827600 -0.667720761500  3.620121553200
H   -0.323971288600 -1.928849216000  2.572913019700
H   -2.971107412600  2.662050383900  2.837025431000
H   -5.276994358500  3.347206944900  2.505097372100
H   -6.363505942300  3.062187161300  0.304266111900
H   -6.273567216000  2.312338658200 -1.986955555200
H   -5.042638016100  1.307399602200 -3.873033115200
H   -2.689439564500  0.618411702800 -3.570835106400
H   -1.573988439400  0.912121446300 -1.444825400500
