82
-125.29846396
C   -1.360070645300 -1.553462393100  3.244013791700
C   -1.182356598900 -0.608890971500  2.050185131100
N   -0.954858940900 -1.329374022900  0.789109483000
P    0.532492963900 -2.159356486400  0.592676363000
O    1.413353562100 -1.086192567800  1.489749679000
C    2.781148651100 -1.247518436000  1.357874703300
C    3.422130718800 -0.694659494500  0.271153578600
C    3.482275323600 -1.945720096500  2.353304115700
C    4.834590504900 -2.098816089900  2.252024967400
C    5.529853293000 -1.614804344300  1.123532697000
C    4.818545552600 -0.921794827900  0.107284108300
C    5.519429709700 -0.530395443600 -1.053986775200
C    6.860459297500 -0.766619156600 -1.179088062800
C    7.571467728400 -1.405454932200 -0.152268636200
C    6.916449992100 -1.826772459100  0.970533279600
O    1.033868601100 -1.710116805700 -0.936656312800
C    1.526324614100 -0.485125478500 -1.310750480000
C    0.900865266300  0.150593507000 -2.401086711200
C    1.322406028700  1.375590147900 -2.825936126700
C    2.641665137300  0.075735569500 -0.717212850500
C    3.026052378500  1.398257037200 -1.080249963400
C    2.358866559800  2.052179521300 -2.149305147100
C    2.747410364300  3.359699732700 -2.508970310100
C    3.733608083000  4.012003703400 -1.823330747500
C    4.365548924700  3.383428114100 -0.739999786000
C    4.023037785000  2.109886332900 -0.377918609200
C   -2.149277222500 -2.010981484000  0.281040227400
C   -3.023018185400 -1.060258037600 -0.517625290100
C   -2.430852037300 -0.091559682900 -1.283563546000
C   -3.180682358100  0.812805285300 -2.044164445300
C   -4.543167179800  0.744878189400 -2.033295532400
C   -5.201566691800 -0.247147248500 -1.277735032700
C   -4.440522351700 -1.179612364700 -0.518282548100
C   -5.147045233700 -2.176967256000  0.190542857500
C   -6.513070723000 -2.236831540600  0.170539098900
C   -7.257203339900 -1.302122156500 -0.562742076300
C   -6.610030343200 -0.331920790200 -1.273211185900
C   -1.811002682000 -3.214361214300 -0.600779088100
C   -2.298569728200  0.397522471500  1.874361037900
C   -3.551808555400  0.176610620700  2.385614626800
C   -4.591807765900  1.100982490600  2.213934460200
C   -4.375137124500  2.258084339300  1.526323629300
C   -2.045373351200  1.603149897000  1.157939855400
C   -3.102598551900  2.537586249200  0.986232302300
C   -2.866403427500  3.731082061700  0.272263646300
C   -1.637376322400  4.002981462000 -0.257966292600
C   -0.591021531800  3.084636153000 -0.094568993600
C   -0.790596658400  1.918419845900  0.590774468700
H   -2.183479657600 -2.251049043900  3.114631256000
H   -1.530084966300 -0.975611078700  4.149418536900
H   -0.445703586100 -2.132823569600  3.363299726700
H   -0.269698588800 -0.043649539500  2.250540030000
H    2.926751632200 -2.342877413300  3.189577507800
H    5.385304188200 -2.618038505500  3.022378154800
H    4.980302832700 -0.049901446600 -1.856012515100
H    7.379815973300 -0.464402742900 -2.076779752300
H    8.632557826500 -1.573971158000 -0.263347339100
H    7.448041877000 -2.341799456000  1.757912011100
H    0.100290637600 -0.371662559100 -2.902753825300
H    0.850223283100  1.851776487800 -3.672711936400
H    2.236977155600  3.840137394300 -3.331795340100
H    4.023170460300  5.014968807700 -2.101002589600
H    5.125506916800  3.915595287600 -0.186520651200
H    4.506383567200  1.641075312600  0.466050203600
H   -2.728871427800 -2.374238364400  1.135832577700
H   -1.356909759700 -0.005404147200 -1.273971129200
H   -2.669979070300  1.567030634100 -2.624637813800
H   -5.138336786700  1.444100501200 -2.603555952500
H   -4.605868904700 -2.920097647800  0.755620880700
H   -7.028224580800 -3.011010451900  0.721435049700
H   -8.336105432200 -1.360226629800 -0.564956674400
H   -7.169257963900  0.390239034300 -1.851820066300
H   -1.129749555400 -2.921859344500 -1.395911427200
H   -2.724790432300 -3.598096485900 -1.051283813100
H   -1.350119042600 -4.008059454600 -0.015832742300
H   -3.767897026900 -0.726241990300  2.934573810400
H   -5.564936282200  0.880640843500  2.628452145200
H   -5.171108738700  2.974923845400  1.382721338600
H   -3.684323172400  4.427885619300  0.151942684100
H   -1.463495051900  4.919230890400 -0.803803511300
H    0.379160613300  3.300106760600 -0.518417326200
H    0.031130503400  1.225944203800  0.682932915700
