82
-125.29535267
C   -0.341164224500  1.604839724900  0.217010216600
C   -1.476150054800  0.596939203200  0.363965735600
N   -1.091033869000 -0.814912863100  0.264728242300
P    0.375478513700 -1.607467910500  0.172559072500
O    1.221391285200 -0.666125819700  1.249402159000
C    2.547855467400 -1.030244720300  1.367322519200
C    3.466475087200 -0.629896160600  0.419378535500
C    2.927158147900 -1.803198066600  2.478145048900
C    4.226084219500 -2.187199818300  2.635669801400
C    5.187655130100 -1.879990526600  1.649270883000
C    4.804236922900 -1.115704491300  0.515215585300
C    5.756770799200 -0.914435609000 -0.507130685800
C    7.033037290700 -1.390402664600 -0.385051866500
C    7.425735749700 -2.093238269900  0.763360034900
C    6.517139665200 -2.340043041200  1.753843273900
O    1.143283905100 -1.105239189300 -1.238767848400
C    1.959552309500 -0.037744749000 -1.466171209400
C    1.658849475400  0.733307698300 -2.609873611000
C    2.413456722300  1.819536506100 -2.935624945200
C    3.056162502600  0.263213352900 -0.680090036200
C    3.780774162400  1.463582541900 -0.944967830700
C    3.468107086300  2.235010809000 -2.094906324900
C    4.204284355600  3.406931994000 -2.364795457500
C    5.188533376200  3.828803310200 -1.515573685800
C    5.460933416800  3.100646614500 -0.348532575400
C    4.776165065300  1.949986876800 -0.069611065900
C   -2.294532265800 -1.641861084900  0.129680550500
C   -2.873754251800 -1.506992288100 -1.266667745800
C   -2.039707771000 -1.764946855500 -2.325433461900
C   -2.472735403400 -1.652289922800 -3.651765145400
C   -3.757023435100 -1.270652770300 -3.916691896300
C   -4.654153941500 -0.997436159400 -2.863612020700
C   -4.220504849900 -1.121316310800 -1.511826631200
C   -5.163112550800 -0.848251242400 -0.494295070100
C   -6.442667256800 -0.469349463600 -0.790425547700
C   -6.860278862000 -0.340404574800 -2.122855523200
C   -5.981744843400 -0.601668993000 -3.134879894800
C   -2.065563144900 -3.113222144000  0.458183203800
C   -2.178484753800  0.844291879300  1.687708168100
C   -1.603023121400  0.339433342000  2.827097648400
C   -2.186486278700  0.513995183500  4.087587882800
C   -3.360531633100  1.201631138500  4.204616070300
C   -3.388509291700  1.585572719500  1.781921698200
C   -3.983599452900  1.752191688100  3.065464740900
C   -5.192334413200  2.471684835700  3.182837522900
C   -5.796751412700  3.018354415400  2.087237390600
C   -5.210028161300  2.867579419800  0.822591484900
C   -4.042265754600  2.172471445900  0.674732639700
H    0.166090056300  1.483523692900 -0.735966898900
H    0.379429022500  1.506593236900  1.023104958300
H   -0.764345185800  2.607721808800  0.255043440200
H   -2.175351781700  0.769716877800 -0.465289421500
H    2.165779701600 -2.070961920500  3.195525290200
H    4.527662312600 -2.759624391600  3.500447351900
H    5.463524490000 -0.387694189100 -1.402347666300
H    7.746433764100 -1.229734418900 -1.180195252200
H    8.441476108900 -2.450430896400  0.849391757200
H    6.798350476500 -2.904776157200  2.631314397100
H    0.818997382800  0.425657613500 -3.215509108300
H    2.192519206100  2.393067503000 -3.824010243200
H    3.963663940100  3.972009157900 -3.254224988500
H    5.747790391500  4.728364697500 -1.727275637400
H    6.215757677200  3.457808822300  0.336923062100
H    4.986225203700  1.408793880400  0.840437916000
H   -3.003649876100 -1.253928858100  0.868354163300
H   -1.014781631100 -2.048692857100 -2.127826160200
H   -1.783590910600 -1.866951101600 -4.455905989000
H   -4.106414655100 -1.172946998300 -4.934836599900
H   -4.878548854100 -0.936111274800  0.542699441000
H   -7.140747168200 -0.264334062200  0.008256655200
H   -7.874485629600 -0.037357469000 -2.338693937900
H   -6.289076123800 -0.511009778200 -4.167435325100
H   -3.028733087600 -3.618580371400  0.500174850000
H   -1.574325451400 -3.206804733400  1.424486517400
H   -1.453828282200 -3.598040637200 -0.297675049500
H   -0.680633074300 -0.214903205800  2.741765213100
H   -1.702281587800  0.098037949900  4.959411448800
H   -3.828352992800  1.338937601100  5.169284999600
H   -5.629491496400  2.583573033600  4.165330053100
H   -6.721468923100  3.568252454300  2.185671766000
H   -5.689280747000  3.304376920600 -0.041733822600
H   -3.617810492600  2.078382451300 -0.312860737800
