82
-125.29463573
C   -0.698678700500  2.477651956300  2.320156304900
C   -1.373458242000  1.816898900800  1.111032810800
N   -1.161387882200  0.373049918100  1.107471463300
P   -0.327837619200 -0.419482572600 -0.146789290900
O    0.831914173200 -1.087596403100  0.855463602700
C    1.898722091300 -1.640398719100  0.186526218600
C    2.914513628500 -0.817066446900 -0.252412680300
C    1.935202181300 -3.027875506900 -0.028917076500
C    2.992139620600 -3.588764965800 -0.684603260900
C    4.025176856700 -2.782458369900 -1.208357742500
C    3.979158927100 -1.375486207800 -1.015005906300
C    4.969660093600 -0.581972080200 -1.633896748000
C    5.980560792000 -1.154047081600 -2.355384411000
C    6.054684691500 -2.547520624900 -2.499312928500
C    5.090957568700 -3.341725657500 -1.944490011800
O    0.591639103700  0.785694298400 -0.819364855300
C    1.724590472600  1.360863855200 -0.280054420900
C    1.730755406400  2.764974365500 -0.167116736500
C    2.811606947000  3.418839199300  0.346312223800
C    2.848017206000  0.626445600500  0.047604460700
C    3.940509236400  1.284947917700  0.684218216600
C    3.924246570600  2.697224343300  0.825336724000
C    5.015765159200  3.344357346600  1.441425239900
C    6.070924879500  2.626591948700  1.930140885900
C    6.067782096500  1.226951950400  1.835196995200
C    5.031540784500  0.572468474200  1.228544345400
C   -2.055361732300 -0.497637799400  1.874705751500
C   -2.175515497900 -1.834473153700  1.166655940000
C   -1.409516429800 -2.906295049700  1.560394812800
C   -1.494382996100 -4.152212507200  0.923593032800
C   -2.345129382800 -4.332556348100 -0.127251545300
C   -3.169103847800 -3.273631461000 -0.560524752200
C   -3.104863071300 -2.013781216100  0.098442723300
C   -3.986308467300 -1.004768381200 -0.342302598400
C   -4.852492097300 -1.210790089900 -1.380258738000
C   -4.891622593600 -2.445211519600 -2.041747368600
C   -4.068629629500 -3.455449190800 -1.632112771600
C   -1.561573115200 -0.651308469600  3.319073421400
C   -2.823649561200  2.223503826400  0.934255704400
C   -3.606773304100  2.560281701200  2.010902848600
C   -4.934449978500  2.984901351300  1.857049464400
C   -5.481626308700  3.088900590700  0.611589695300
C   -3.388959521400  2.281334991600 -0.374544601400
C   -4.727540497700  2.740388892500 -0.528338473700
C   -5.289790177700  2.827055416700 -1.819796997300
C   -4.576509936700  2.457798259300 -2.924322992200
C   -3.270301946000  1.970102583100 -2.776183179500
C   -2.693921713300  1.884276997600 -1.539489666500
H   -1.119273907600  2.150827216400  3.264382144200
H   -0.796262761700  3.558918007000  2.246732988500
H    0.358386219600  2.220100813200  2.316172567000
H   -0.839430715800  2.192973259300  0.236066088000
H    1.110808889700 -3.620066799500  0.335872570800
H    3.036361990500 -4.657269765400 -0.836915471100
H    4.915849188700  0.492093314900 -1.541481305500
H    6.728312355100 -0.530818116200 -2.823942227400
H    6.866865295600 -2.983085122400 -3.062720453300
H    5.122049002800 -4.414736755600 -2.069887331000
H    0.867951754100  3.312992170400 -0.515610700300
H    2.814755026100  4.496761908500  0.413818388800
H    4.993409297600  4.421397762100  1.528013442600
H    6.903150899200  3.127544747600  2.402586791600
H    6.891106654600  0.664413222000  2.250810007100
H    5.033596311300 -0.505627126000  1.174548711100
H   -3.050167209300 -0.036299761800  1.918873481700
H   -0.712251084600 -2.802603115200  2.375555650000
H   -0.876523651300 -4.966751940900  1.275487847800
H   -2.408063210500 -5.284503621000 -0.634883806000
H   -3.987509873700 -0.045710381000  0.146304804600
H   -5.511465503400 -0.413940274900 -1.692724870000
H   -5.577362913000 -2.591697838200 -2.863503879900
H   -4.094972581500 -4.418989085300 -2.121543534500
H   -0.489519786000 -0.827717637700  3.335245236000
H   -2.077892291000 -1.476907234500  3.803905324500
H   -1.766705528400  0.252166610500  3.885786742200
H   -3.205207285800  2.510754288100  3.010698705700
H   -5.511354057500  3.237106665100  2.735028876900
H   -6.497887391700  3.431639746200  0.478907700100
H   -6.304909418500  3.187106100800 -1.914253790700
H   -5.013666175500  2.525667586200 -3.909989694200
H   -2.717432695800  1.653561383400 -3.648637838400
H   -1.698685081500  1.474003354900 -1.461907034100
