82
-125.29283617
C   -2.121502044300 -1.390467125600 -2.855947187000
C   -2.475718144900 -0.802653177400 -1.492446332200
N   -1.319468555600 -0.444032628800 -0.661208021600
P    0.196485412500 -0.644977203600 -1.339946652100
O    0.966459188800 -1.440566836100 -0.088756982900
C    2.287640985600 -1.718311634100 -0.374452242400
C    3.244773919700 -0.732306398700 -0.257231199300
C    2.619184719400 -3.021172492700 -0.784286607500
C    3.909992944100 -3.335685524400 -1.090994668800
C    4.911403390700 -2.341014024700 -1.077371981400
C    4.576530859100 -1.018829256800 -0.681413131400
C    5.569466288800 -0.020384079400 -0.781647235000
C    6.837694625300 -0.326269575900 -1.192030803700
C    7.181726239700 -1.644608818800 -1.524460910100
C    6.233679120700 -2.627728242000 -1.476596481100
O    0.968829133200  0.831312237300 -1.188624064700
C    1.820844325300  1.310150208900 -0.237845213000
C    1.592487034900  2.645389223700  0.160331872400
C    2.375373543300  3.235304784800  1.105776788300
C    2.884561280300  0.593755265100  0.277014728700
C    3.633898614800  1.159432462800  1.352900765500
C    3.387524339700  2.497599923500  1.756360034600
C    4.146289913100  3.056656393300  2.805020061700
C    5.088758249100  2.316059212400  3.461894754800
C    5.294616746500  0.976002363900  3.104434480800
C    4.587059395300  0.412200564600  2.078508005500
C   -1.768728201600 -0.099640606800  0.691733837300
C   -2.412384606300 -1.292145842100  1.378253045500
C   -1.765850511500 -2.501962373100  1.332810870300
C   -2.297622792400 -3.647405272200  1.937429727300
C   -3.493149370400 -3.578294267800  2.593115798500
C   -4.190356895200 -2.355447322800  2.680227066800
C   -3.647479656800 -1.184841085700  2.076587759700
C   -4.376089025900  0.018759142000  2.212607697800
C   -5.567012277900  0.060689520500  2.882891366200
C   -6.101946323400 -1.098095861400  3.463618275500
C   -5.422903288800 -2.278499359800  3.364044898800
C   -0.685836805500  0.466493900800  1.604037084100
C   -3.464014083900  0.341071141000 -1.651866071800
C   -4.761662418200  0.116601561400 -1.258845967600
C   -5.758951644300  1.090860195700 -1.395353146900
C   -5.452796651400  2.308190582100 -1.931248157300
C   -3.120344503200  1.602653746300 -2.211849370800
C   -4.136388536200  2.591481427500 -2.350218888100
C   -3.812651448100  3.846536293300 -2.909216200900
C   -2.540880457400  4.128774236600 -3.319339238400
C   -1.535740529300  3.160739046000 -3.180075437900
C   -1.817210426500  1.935798192000 -2.641896798600
H   -1.598695463900 -0.678122267500 -3.486544863200
H   -3.045566653300 -1.678284967000 -3.354734395200
H   -1.502400589000 -2.276562837500 -2.732331827900
H   -3.012660253800 -1.595169151300 -0.947065399700
H    1.828262613800 -3.754337234100 -0.839691319700
H    4.175046040400 -4.341477679300 -1.381864656700
H    5.314122502200  1.000701623300 -0.542899059200
H    7.582442141600  0.452679934600 -1.266719909500
H    8.191570302000 -1.871124116800 -1.833672656300
H    6.477463930100 -3.642386771800 -1.757687766100
H    0.785251197200  3.179567189900 -0.319427332200
H    2.209304324800  4.264033335000  1.390377136900
H    3.956358797100  4.082628116200  3.087060155700
H    5.665188461200  2.749461047400  4.266052953100
H    6.015460553000  0.384571369300  3.650147188000
H    4.745366029600 -0.625401617500  1.826374056700
H   -2.521242886000  0.686582264100  0.551014965100
H   -0.825924178300 -2.571772799200  0.807909164900
H   -1.755972546400 -4.580395295800  1.875396249600
H   -3.922019545200 -4.454748772700  3.058136556000
H   -3.993253309000  0.931569350400  1.783212560400
H   -6.103579997700  0.994754410600  2.968481811700
H   -7.045182985600 -1.047680367000  3.987930518100
H   -5.818176274100 -3.179722143200  3.811790632200
H    0.115363614600 -0.250640608700  1.755708892600
H   -1.130704765300  0.692099461500  2.572214563400
H   -0.276008400700  1.384840094800  1.193673495500
H   -5.028092509600 -0.838189121200 -0.826158970000
H   -6.763960593500  0.866562542600 -1.069058655800
H   -6.210059455300  3.071078173700 -2.043705433900
H   -4.598103820800  4.583101854700 -3.006741594200
H   -2.301760329800  5.091445630200 -3.747963251900
H   -0.529092112900  3.387757926200 -3.501171069500
H   -1.021787413100  1.217520011700 -2.530683542400
