82
-125.29454814
C   -0.923296624700  2.797738540100  2.164099109000
C   -1.483279706100  1.979034703800  0.993236455700
N   -1.144008928300  0.561151186500  1.130536613900
P   -0.389605153400 -0.237539524000 -0.181062679000
O    0.720164512700 -1.026842444700  0.775730968800
C    1.755913464900 -1.595390424900  0.068856562300
C    2.822847015900 -0.804783982900 -0.302914788000
C    1.709382666200 -2.962180333000 -0.250220658900
C    2.737320056500 -3.535028299300 -0.941504720900
C    3.822823884700 -2.756426125300 -1.396691686400
C    3.860603571500 -1.367832321800 -1.097357695500
C    4.904860926600 -0.591575482200 -1.645657676800
C    5.886713628300 -1.167983785900 -2.402853464000
C    5.876562744500 -2.548305244600 -2.653650518100
C    4.860679360200 -3.322114692000 -2.167210981400
O    0.608343809200  0.939741133900 -0.794826532100
C    1.748739855100  1.424558086200 -0.186857806900
C    1.811372438300  2.811658883500  0.045707414800
C    2.909920778500  3.370463842000  0.630122973400
C    2.829911499800  0.614583572900  0.102283745800
C    3.939115033200  1.167085736100  0.805083674000
C    3.981886306200  2.562600349000  1.061863086400
C    5.089669335400  3.106480541600  1.745354842700
C    6.102962897800  2.303685731700  2.188232455300
C    6.040892070100  0.918135482100  1.976628730500
C    4.988265155800  0.363376650800  1.302738362000
C   -1.992526158400 -0.298304358000  1.965026110800
C   -2.037931801200 -1.704646913200  1.394233010800
C   -1.293467913500 -2.717100116300  1.950506401300
C   -1.325601740200 -4.025259905600  1.447923784600
C   -2.104404188900 -4.331899734500  0.370100444800
C   -2.896167646500 -3.335084875000 -0.235258599100
C   -2.880574848300 -2.010207998200  0.284127317800
C   -3.720145572700 -1.059804728200 -0.333569522100
C   -4.503136223500 -1.382852974600 -1.406597268500
C   -4.496986974200 -2.684208101300 -1.926867699300
C   -3.712036184700 -3.638855265900 -1.345750103100
C   -1.500628714600 -0.280355656000  3.417224146500
C   -2.949657930600  2.260711231600  0.726874410700
C   -3.818137893300  2.523864216500  1.758463242300
C   -5.168190310400  2.828850780100  1.533576403500
C   -5.654356326100  2.887383742000  0.260456161900
C   -3.447314053200  2.271443094300 -0.611152589500
C   -4.811820521900  2.610135248900 -0.836204342900
C   -5.312538598900  2.648734959500 -2.154991741100
C   -4.514402976000  2.344840762500 -3.220623674300
C   -3.179783824000  1.974435989100 -3.003451166300
C   -2.662139976800  1.939113479500 -1.738459540900
H   -1.397295919500  2.562289430500  3.109936821700
H   -1.063351470000  3.857915015600  1.961856950800
H    0.140923060000  2.594325923400  2.259468787200
H   -0.933525232000  2.320526637200  0.113818499200
H    0.847696066700 -3.528977176600  0.067514086800
H    2.717924003900 -4.589601845400 -1.174605635800
H    4.915600706400  0.473264445800 -1.469232158600
H    6.676625008700 -0.558386186300 -2.816973195400
H    6.666581238200 -2.988645026500 -3.244217342100
H    4.828255289500 -4.382333653300 -2.374277104000
H    0.978380310000  3.423444939600 -0.266304346200
H    2.957833848700  4.437471938000  0.791089415100
H    5.113556863200  4.172627130500  1.920929209900
H    6.947338722000  2.725732036200  2.713328833800
H    6.831572872400  0.286894849300  2.355390823100
H    4.944099137200 -0.705415873400  1.157800407300
H   -3.017688291600  0.097185260400  1.962107264800
H   -0.645214662500 -2.519412936100  2.788058757200
H   -0.720596164100 -4.784449169800  1.923977493500
H   -2.127855809600 -5.334648554500 -0.032668422000
H   -3.752273692800 -0.053172758700  0.045167296100
H   -5.130913564900 -0.627907500400 -1.857060363800
H   -5.117481495200 -2.924245235900 -2.777949645500
H   -3.703236839800 -4.650612984000 -1.726642575400
H   -1.725778317600  0.674956953100  3.880934696700
H   -0.424790530700 -0.429071847700  3.452887689300
H   -2.000498897300 -1.058149094100  3.990233568500
H   -3.469709096800  2.508226941400  2.779296609800
H   -5.811087652700  3.026022571500  2.379159647600
H   -6.688421423900  3.138479022000  0.072232249900
H   -6.349333006900  2.917790095000 -2.301960842500
H   -4.904847854300  2.374654781400 -4.227513069400
H   -2.556628999800  1.708870261200 -3.844956377200
H   -1.639026694300  1.619783772400 -1.611356361000
