82
-125.29739270
C   -2.889797241800 -1.164180851500 -2.479595970600
C   -3.041698403500 -0.016362698600 -1.478136871200
N   -1.900285399500  0.058079070800 -0.571566817000
P   -0.403394982900 -0.258186534600 -1.258948660300
O    0.181734547000 -1.285529061800 -0.091816827700
C    1.446238653600 -1.757993444800 -0.350901963300
C    2.543833124600 -0.951160959400 -0.136336767200
C    1.581290402200 -3.071727958000 -0.832574673800
C    2.815380522400 -3.570345029900 -1.127665688300
C    3.960345138900 -2.749910930900 -1.030528475000
C    3.827154310900 -1.419400002500 -0.551498414900
C    4.968700024600 -0.588988423900 -0.566459348400
C    6.183595704400 -1.066051146300 -0.975439722700
C    6.323989645200 -2.397827022300 -1.391232352300
C    5.231034897700 -3.217649098700 -1.425751591500
O    0.538447544100  1.080815050400 -0.915951120700
C    1.478262664500  1.305739911200  0.046123589900
C    1.525548290400  2.635079623600  0.520788369600
C    2.400273268300  3.003396380600  1.496734199000
C    2.391148623600  0.370530126500  0.496849663700
C    3.213530666500  0.708740632800  1.614986699100
C    3.229265450200  2.038944172900  2.107968527300
C    4.057665497400  2.365945655100  3.200881863400
C    4.814993966200  1.409758508100  3.817819733800
C    4.758131946300  0.082187350900  3.370629101400
C    3.981457980200 -0.259110214400  2.297589563600
C   -2.203379523700  0.590840610100  0.760255770600
C   -1.289652167500  0.010476341400  1.820073268100
C   -0.390313190100  0.788803993700  2.501387775500
C    0.453806651500  0.252587174000  3.485369031600
C    0.395933578600 -1.073914811000  3.792645585800
C   -0.526922287800 -1.915564114600  3.136293939400
C   -1.392246451500 -1.374264440100  2.147373506700
C   -2.304310928700 -2.252132087600  1.522923208400
C   -2.352941503600 -3.580134050700  1.846577421900
C   -1.490674553300 -4.109827850700  2.816263409100
C   -0.599020613900 -3.289762422800  3.447296751500
C   -2.261522956100  2.120732985900  0.748200237700
C   -3.317444521400  1.264159514800 -2.245731393200
C   -2.263303057200  2.018179391500 -2.691679181000
C   -2.453869856600  3.198755470900 -3.420181049100
C   -3.718418397100  3.622570640600 -3.711866856200
C   -4.646382323400  1.666587720200 -2.560079376200
C   -4.836804170700  2.869837768500 -3.297707860200
C   -6.145596735800  3.291153568600 -3.616823277800
C   -7.234546939700  2.559446741000 -3.238190282100
C   -7.054273113900  1.368347833200 -2.520809168100
C   -5.799286961700  0.936227133900 -2.191975529500
H   -2.170871885800 -0.906420369100 -3.252757855300
H   -3.847829792600 -1.365393579300 -2.954704851600
H   -2.548216378600 -2.060463787700 -1.965613591500
H   -3.907022297600 -0.238149097800 -0.842581520900
H    0.685134771200 -3.662274959300 -0.949435288800
H    2.928307989800 -4.587056761800 -1.474319023300
H    4.872445634300  0.442719314500 -0.264448040400
H    7.043614251400 -0.412323467600 -0.984962446000
H    7.293167960500 -2.762124273400 -1.699018553500
H    5.318430145900 -4.237792345400 -1.771726955900
H    0.855074846200  3.352223815200  0.069304370300
H    2.443783567400  4.028043717100  1.836433311300
H    4.067918943300  3.388491383800  3.551544102100
H    5.443721530400  1.664880514500  4.658437307900
H    5.329792313400 -0.676940752900  3.884712421300
H    3.932816708900 -1.289074909900  1.978376135100
H   -3.219686006700  0.245654032100  1.010405901500
H   -0.303502860000  1.841547157500  2.288284802100
H    1.153814939800  0.904687369300  3.987100033400
H    1.051957190400 -1.499172898100  4.539248910400
H   -2.970412774000 -1.877291985800  0.763185837100
H   -3.058891888800 -4.232087113600  1.351196558400
H   -1.537553040100 -5.162095001300  3.058052887600
H    0.072261636400 -3.681680652700  4.199170022300
H   -1.323185742600  2.542159516400  0.402078089400
H   -2.486498526600  2.497222508000  1.743478722100
H   -3.047441746400  2.445126916500  0.068935943300
H   -1.254369716000  1.702425104500 -2.465180151100
H   -1.592981853300  3.764921437600 -3.744894947800
H   -3.883040947600  4.533533359100 -4.269559942900
H   -6.267249534700  4.208831532800 -4.175166592600
H   -8.232970577800  2.887304972000 -3.488498563100
H   -7.918257773700  0.788615019200 -2.228864899600
H   -5.699574986300  0.010399326300 -1.647036682500
