82
-125.29233969
C   -0.391723552200  1.692203948400  0.115802897300
C   -1.472404396400  0.643153517700  0.407913541700
N   -1.064450564000 -0.721094263900  0.079114957800
P    0.275906355500 -1.587534448000  0.680942326300
O    1.089563910300 -0.300791361500  1.303838591600
C    2.422052720900 -0.535336812600  1.582006221100
C    3.349893274200 -0.480946519800  0.564183834000
C    2.800284771800 -0.784362563900  2.911122781400
C    4.113407921100 -0.993064383900  3.218522759200
C    5.093011268500 -1.021344410400  2.203285060200
C    4.710254508500 -0.783762493600  0.855732670800
C    5.691640009800 -0.906405148300 -0.151764844100
C    6.990105378800 -1.197458930000  0.162838062300
C    7.376396089200 -1.381819394700  1.498856617500
C    6.444446271200 -1.303038329100  2.495125291300
O    1.203040069100 -1.853612800100 -0.692635353400
C    1.881617450600 -0.884794468900 -1.383417916300
C    1.548236913100 -0.702388692100 -2.739429859300
C    2.174460154100  0.252391251700 -3.485253399600
C    2.902257069500 -0.153997502100 -0.804200130100
C    3.498622785900  0.907368271000 -1.542050916400
C    3.133497292200  1.105793828100 -2.900121086700
C    3.735858206300  2.150718666700 -3.631427839600
C    4.640988247300  2.988148288400 -3.042327589500
C    4.969200682400  2.822346814600 -1.688455409100
C    4.413556539500  1.809695413000 -0.956638692500
C   -2.249414664100 -1.541213143500 -0.200427382400
C   -2.902341505600 -1.107675861300 -1.502530607200
C   -2.125296864600 -0.580175388500 -2.502134951400
C   -2.665663171300 -0.196694648600 -3.735801136500
C   -4.001732512900 -0.348888688100 -3.970699577700
C   -4.843717000500 -0.891574499000 -2.977512559000
C   -4.297378200500 -1.281768904500 -1.721932233800
C   -5.179780516600 -1.826712245700 -0.761773285200
C   -6.513632602000 -1.975247113500 -1.023949115100
C   -7.045862107100 -1.588925513100 -2.262463581100
C   -6.224894264000 -1.057949704500 -3.215783501800
C   -1.927458246700 -3.032071429200 -0.306143219900
C   -2.012854412000  0.806506999700  1.817693814400
C   -1.648268400100 -0.058664547500  2.815041985200
C   -2.093903512800  0.094598526800  4.134722387900
C   -2.919617393600  1.131044045300  4.458735064000
C   -2.909823545700  1.871974888000  2.121028593100
C   -3.351423742300  2.034000361000  3.464513220000
C   -4.225992382700  3.093414015900  3.787775021200
C   -4.670112177600  3.958658719100  2.829189058200
C   -4.261735921300  3.787992304600  1.499074296900
C   -3.407416693500  2.776407544900  1.156077698500
H    0.162775542300  1.410898871800 -0.776820680700
H    0.302702442000  1.791941850000  0.943816261800
H   -0.856792868100  2.660480869300 -0.053555460500
H   -2.297602705700  0.840349826400 -0.289455899200
H    2.030654828600 -0.794369025700  3.668417614400
H    4.415141886500 -1.166226778800  4.241014830400
H    5.402887740800 -0.778919482700 -1.183931833700
H    7.727152444400 -1.291377829700 -0.621330853100
H    8.408672679800 -1.600133462100  1.730123952900
H    6.724827512200 -1.466745449300  3.525912217900
H    0.803087045600 -1.354550272900 -3.170148670100
H    1.927529550000  0.379040701100 -4.529389033200
H    3.458030129000  2.280579247300 -4.667890922500
H    5.097771594900  3.787046250700 -3.608029063200
H    5.664158106800  3.505956224600 -1.222728887300
H    4.662877430300  1.699724240400  0.088015791500
H   -2.964860736400 -1.394444586500  0.622075393600
H   -1.070285533900 -0.444914543000 -2.322886900600
H   -2.015520823600  0.218098357400 -4.492608597200
H   -4.435137420800 -0.059383708700 -4.917537132800
H   -4.800269361900 -2.137190293000  0.199276821700
H   -7.167441265400 -2.394872952200 -0.272848623500
H   -8.101832036000 -1.714294966800 -2.453127262100
H   -6.620385707100 -0.755930367800 -4.175588241600
H   -1.081360245000 -3.184622465900 -0.972717046500
H   -2.789048203800 -3.559416045800 -0.711577984400
H   -1.690500421600 -3.453129941300  0.668172196900
H   -0.995666746200 -0.891609905000  2.590094359200
H   -1.772357338300 -0.611754110000  4.886541936800
H   -3.262240328600  1.271210556900  5.474065472600
H   -4.541785699500  3.202581978900  4.815948476100
H   -5.339734517500  4.767143518500  3.084192212200
H   -4.629686036500  4.463137830200  0.739731157700
H   -3.123697829200  2.668335644600  0.120904681500
