82
-125.29457926
C   -2.795789697900  1.316615907900 -0.823820183200
C   -2.367564360000  0.715375691300  0.518205988200
N   -2.042420395200 -0.709793708300  0.374479399900
P   -0.556013306400 -1.414623242300  0.047350245500
O    0.356222550600 -0.630552826700  1.194829569000
C    1.691883472000 -0.952667026600  1.175471095300
C    2.522362394600 -0.413797004500  0.215202894100
C    2.178109960000 -1.828274536000  2.162014758700
C    3.492976283800 -2.188238912600  2.171878317700
C    4.361397291300 -1.752178190800  1.147639812200
C    3.871605308900 -0.874981112400  0.143571917100
C    4.730445956600 -0.542325849100 -0.926405918800
C    6.018116411600 -1.001626895900 -0.967358824300
C    6.517472105400 -1.817867031500  0.057676769200
C    5.700417254700 -2.191617350100  1.087504797300
O    0.007581157500 -0.625084653800 -1.310045091700
C    0.866723415200  0.422829538800 -1.461000176600
C    0.543756160100  1.304999983800 -2.515226318200
C    1.303629742300  2.406513753100 -2.766661956700
C    2.022190570700  0.605421072800 -0.724281475200
C    2.748254815500  1.824214837000 -0.890714854800
C    2.393401133800  2.724476231100 -1.928462700800
C    3.125083418700  3.918234194600 -2.093869434900
C    4.146363312100  4.238608557100 -1.243739597900
C    4.463325874900  3.379012214500 -0.182344864300
C    3.785327655100  2.203365112500 -0.011315831200
C   -3.180534849800 -1.606858285300  0.579864323100
C   -4.272948518100 -1.516557440800 -0.473178049600
C   -5.543518121600 -1.222594801300 -0.038938899300
C   -6.638352970100 -1.174241200900 -0.912017466700
C   -6.460042311900 -1.426552606200 -2.241028660100
C   -5.176923344400 -1.729050653000 -2.742178526500
C   -4.061901834400 -1.775087929000 -1.856955192800
C   -2.797041925800 -2.065947608800 -2.411462136900
C   -2.641525456800 -2.306419856300 -3.748274861500
C   -3.744658529200 -2.272535452500 -4.613291048900
C   -4.984279333200 -1.986624057700 -4.116386965400
C   -2.777721500500 -3.066978043100  0.784936367500
C   -1.268217001700  1.500923814200  1.209057536000
C   -0.530138942500  2.440238634600  0.535412973900
C    0.485038736500  3.176127442000  1.164262578700
C    0.768469586300  2.970707528300  2.481240488600
C   -1.010525479200  1.291091864800  2.597097052700
C    0.029974531900  2.027714753400  3.226550555900
C    0.316828184300  1.804083091300  4.589633599200
C   -0.390398975200  0.891768636900  5.319813678000
C   -1.423861329900  0.169228797600  4.708699801300
C   -1.723239082000  0.365364699500  3.388519273600
H   -3.013228581500  2.376059140100 -0.708152343000
H   -3.694878665700  0.816251868500 -1.174716346400
H   -2.022685243400  1.182740828200 -1.573226528700
H   -3.248557249000  0.767909616100  1.175999237500
H    1.482415507700 -2.189156345900  2.904721460200
H    3.878274948300 -2.839468280400  2.942648887000
H    4.355003402700  0.071887845700 -1.730561909800
H    6.657335331200 -0.739852731100 -1.797993562800
H    7.540873590200 -2.160990251200  0.016871556500
H    6.062673833900 -2.844405833200  1.868964368900
H   -0.315642436200  1.064625909900 -3.124536169400
H    1.060850253900  3.064345718700 -3.588538469800
H    2.849409736000  4.583548322100 -2.900057325900
H    4.700133787400  5.157230241300 -1.372153459500
H    5.246856803600  3.654281031300  0.508755346000
H    4.027651793900  1.562366359600  0.822559649800
H   -3.653519306100 -1.291352621300  1.524641318700
H   -5.716310739100 -1.024342620700  1.010544205000
H   -7.617264271300 -0.938892622100 -0.520490775600
H   -7.294018594500 -1.398459857300 -2.927721402700
H   -1.928065364000 -2.079109321600 -1.773539171600
H   -1.659404760700 -2.521931562700 -4.144005483600
H   -3.605832136800 -2.467753365200 -5.666921110000
H   -5.844078131900 -1.949570936800 -4.770820710700
H   -2.391942471400 -3.515148119600 -0.125117279200
H   -3.656840685500 -3.628766920000  1.096913992900
H   -2.021694097100 -3.136517149800  1.564931011200
H   -0.705928779500  2.630708805900 -0.510450654300
H    1.042837798600  3.898243552400  0.585890750700
H    1.559134993200  3.521321212400  2.971419676300
H    1.115778092900  2.372852849800  5.045345623700
H   -0.161701938700  0.723477554700  6.362495088600
H   -1.984976990600 -0.549810661200  5.289104682100
H   -2.518125651400 -0.212843889100  2.947503551900
