82
-125.29312480
C   -3.354726931100 -2.090649053400  0.914893710000
C   -2.484574892200 -0.957556657400  1.466667900600
N   -1.431778198400 -0.560978711300  0.524883575700
P    0.053869361000 -1.257922848300  0.875129809000
O    0.958111213400  0.124944168000  1.184047779200
C    2.283860100300 -0.157288983100  1.430625429300
C    3.140989263200 -0.372136274800  0.372239529800
C    2.727299069400 -0.228902525000  2.761777294000
C    4.030881389700 -0.525435473600  3.031914132200
C    4.928862042000 -0.833543671500  1.987173690000
C    4.479322657800 -0.779432299900  0.640781773900
C    5.365184692100 -1.189792734200 -0.378781052000
C    6.642883543000 -1.579256669400 -0.085621428000
C    7.102241796700 -1.579798088300  1.239717403100
C    6.258515817400 -1.222198216400  2.253649321400
O    0.716426528800 -1.620348127700 -0.603924159600
C    1.488742948800 -0.830870733900 -1.425179276100
C    1.087306477400 -0.765045307200 -2.775786714400
C    1.793654354300 -0.027042371700 -3.677378404600
C    2.640224595600 -0.194746536300 -1.002591399000
C    3.325523852000  0.665965394600 -1.911637289900
C    2.907645440400  0.734245952800 -3.266009924800
C    3.603528674400  1.568102100600 -4.165568869900
C    4.651632303800  2.336135023100 -3.741976322200
C    5.031794476100  2.313391854600 -2.392319535400
C    4.386695758200  1.501617404300 -1.500259256700
C   -1.622287241600  0.419806512100 -0.541814611100
C   -2.934049531600  0.279385972600 -1.293867034100
C   -3.883471055100  1.269890510900 -1.250815907400
C   -5.060219018400  1.204333398100 -2.011381881700
C   -5.288438277600  0.146014659400 -2.840648576200
C   -4.349933601500 -0.903627541400 -2.920760424700
C   -3.165973359500 -0.850988783600 -2.133399856300
C   -2.279045610000 -1.947490880200 -2.213330038000
C   -2.525803896300 -3.008318983600 -3.040352388400
C   -3.679967591600 -3.039784595300 -3.835768139600
C   -4.574680016400 -2.010136502500 -3.767617193300
C   -1.359370061800  1.847200323400 -0.045721419100
C   -3.278057242800  0.209660854500  2.015411872900
C   -4.575273234900  0.430564696400  1.625458299900
C   -5.333112786200  1.490831220100  2.143364164700
C   -4.793033087600  2.337214900000  3.066616755400
C   -2.694341916900  1.075792357300  2.987072071700
C   -3.467787139500  2.149114499400  3.511500156800
C   -2.899622718300  3.013379596800  4.471522262700
C   -1.616968784100  2.837351683300  4.905814353100
C   -0.850031879800  1.781331249900  4.393597776200
C   -1.373848554700  0.925970560800  3.464480500600
H   -4.047038574800 -2.424024027900  1.684794936500
H   -2.708423100000 -2.922505949200  0.641607916600
H   -3.914689900400 -1.795977378500  0.034555805800
H   -1.942230153700 -1.401916528900  2.313914412500
H    2.012355919900 -0.040797919600  3.548247865000
H    4.384292938000 -0.561152285900  4.051952249900
H    5.018106098800 -1.205357139200 -1.400759727300
H    7.305887019900 -1.894252757400 -0.878201398300
H    8.118156822700 -1.879038421800  1.452010478700
H    6.592268182400 -1.243399375300  3.281315899800
H    0.214195112200 -1.323208647700 -3.077528639300
H    1.489283140000  0.002641608800 -4.713250702700
H    3.281246018100  1.594226587000 -5.196814454200
H    5.180265990700  2.973753310600 -4.435280366600
H    5.838712357700  2.948306692600 -2.056440270200
H    4.680327480000  1.507189465400 -0.461663413500
H   -0.828046132000  0.207912557600 -1.271771263700
H   -3.743951535400  2.134259765600 -0.623208600800
H   -5.776280608300  2.010000966200 -1.937113022800
H   -6.183757318900  0.093064051500 -3.443686101900
H   -1.406514490000 -1.966109139800 -1.583226295400
H   -1.830144494100 -3.834817893800 -3.078603451300
H   -3.859184728700 -3.882886472600 -4.487235242300
H   -5.478419351600 -2.026530089900 -4.360857124600
H   -2.073324265800  2.148972686700  0.714592185900
H   -1.399591651800  2.543243035900 -0.881219662300
H   -0.366483725300  1.890617801200  0.393812240600
H   -5.043742456400 -0.214495791000  0.900724089700
H   -6.348982283700  1.624883660800  1.801098460600
H   -5.367570402000  3.157379616100  3.473240326200
H   -3.505137638600  3.821895164300  4.856930032400
H   -1.187857642800  3.503497928900  5.640297957200
H    0.164576371700  1.649561653600  4.741187987600
H   -0.758184810500  0.129656068600  3.077682794100
