82
-125.29401773
C   -2.160104279500 -2.509673900300 -2.694412662100
C   -2.580399181100 -1.560504406900 -1.563710056400
N   -1.484213418300 -1.268606546300 -0.639116820500
P    0.006936515900 -0.960278726400 -1.368755992000
O    0.950255856400 -1.883090269100 -0.359795158000
C    2.295701358300 -1.800531894700 -0.656432785000
C    3.029656668800 -0.706909924300 -0.247513651800
C    2.883322869300 -2.861932538800 -1.365674798100
C    4.209188023600 -2.824504835900 -1.681495273800
C    4.984531718700 -1.685884662400 -1.373710973200
C    4.388106849800 -0.602133422500 -0.675450471700
C    5.153444565000  0.568992022400 -0.486330716800
C    6.453800103700  0.637719802900 -0.904618540000
C    7.060027192300 -0.458611328300 -1.534727418400
C    6.334346073300 -1.591789547700 -1.772816254200
O    0.444688224500  0.551983761100 -0.805635205900
C    1.219500636400  0.939570576300  0.246669626800
C    0.771007365300  2.091513408800  0.924457033800
C    1.471693274600  2.599458348400  1.974924414700
C    2.417887841500  0.341590326000  0.588910917600
C    3.077049288200  0.774880961200  1.779249248200
C    2.612451423200  1.927875327800  2.462632968800
C    3.288394817600  2.366980592400  3.618980406800
C    4.356325409100  1.672822250600  4.115179423700
C    4.780311759100  0.498664189800  3.477011741700
C    4.159552351500  0.062328407400  2.338717845900
C   -1.526355603500 -1.777115968400  0.743705680400
C   -1.088423658600 -0.735428441500  1.755356257900
C   -0.048333009300 -1.051602464700  2.594596784300
C    0.320368717600 -0.224795278900  3.663189823300
C   -0.372635162100  0.925217210100  3.904511200000
C   -1.428925963300  1.311930759200  3.054675611500
C   -1.786816503500  0.487277927700  1.951287347000
C   -2.825549885000  0.931406457500  1.104993965700
C   -3.485730061300  2.104918366400  1.344271710300
C   -3.146353701300  2.902086110200  2.446794841100
C   -2.135761964300  2.512101458600  3.279134000200
C   -2.862722997100 -2.357277759800  1.221932422700
C   -3.201911589000 -0.317832475600 -2.177278257100
C   -2.420668368100  0.766415478500 -2.478687473300
C   -2.951247471000  1.923883134300 -3.062581503200
C   -4.282784253300  1.992089075500 -3.353513860000
C   -4.592026322500 -0.282884779400 -2.491118156400
C   -5.128892869900  0.897188054100 -3.080099235400
C   -6.503866286300  0.957469034100 -3.392892642500
C   -7.330848189900 -0.101259054700 -3.148219318600
C   -6.808021730000 -1.270369858800 -2.578218879500
C   -5.480771072500 -1.357768969200 -2.260087357700
H   -1.501503294300 -2.000081596600 -3.393298114900
H   -3.038176693900 -2.854130968100 -3.236792134800
H   -1.636217612000 -3.369337227200 -2.280507432600
H   -3.348848629900 -2.063565739100 -0.982064191200
H    2.257297486500 -3.698605450300 -1.638315536800
H    4.673051849300 -3.649454137200 -2.201752022200
H    4.695232055600  1.426493372800 -0.018074417700
H    7.020183805400  1.545337903200 -0.754847629300
H    8.092388876900 -0.392695571900 -1.845478186500
H    6.778594745000 -2.433036134600 -2.285556630000
H   -0.134617166500  2.558766081400  0.568436817800
H    1.140293040700  3.501318612000  2.467783031100
H    2.931745437400  3.258507760900  4.115178606100
H    4.866617428600  2.011682093900  5.005025426900
H    5.601446859600 -0.066677105700  3.893663551600
H    4.487382278200 -0.851925709100  1.867080201600
H   -0.801827898200 -2.600801607600  0.811498548800
H    0.497417110300 -1.973058475000  2.442769751700
H    1.143929355500 -0.516751054400  4.298438584500
H   -0.118303949000  1.558104808800  4.742548698200
H   -3.084260032300  0.351539474400  0.235718982600
H   -4.275098918500  2.424567247700  0.678773863900
H   -3.681138859000  3.824096130900  2.625179426000
H   -1.853683636500  3.123228663800  4.125349466200
H   -3.676102930000 -1.640255211300  1.148261293700
H   -2.743453545900 -2.617897952200  2.272521905600
H   -3.118911026800 -3.268549632100  0.684945747000
H   -1.366418343100  0.740230894700 -2.247045069200
H   -2.295195767400  2.755434263400 -3.275052792600
H   -4.708679968900  2.879312446700 -3.800340447900
H   -6.889346370200  1.864738798900 -3.836827403600
H   -8.381983648000 -0.047804762100 -3.391768125100
H   -7.463551133700 -2.108991994600 -2.391613858600
H   -5.116080268300 -2.278077216700 -1.831381969700
