82
-125.29653070
C   -1.032455741200  2.570784122800  1.579386187400
C   -1.338129930700  1.689305541900  0.362514186000
N   -0.782041845400  0.347424786600  0.598834882900
P    0.232681248900 -0.265835311900 -0.641872050000
O    1.202155623600 -1.125928354200  0.391164604600
C    2.388133106500 -1.544021453400 -0.171594976000
C    3.440499791000 -0.657094806200 -0.254439042000
C    2.504653152100 -2.867234650800 -0.627370251400
C    3.678688711300 -3.299110179100 -1.173217128200
C    4.762549468700 -2.411721505700 -1.342666347300
C    4.641053943500 -1.066813863000 -0.900053567600
C    5.703334073400 -0.175167135400 -1.164991316500
C    6.843644012600 -0.604432411800 -1.785435351500
C    6.982853132800 -1.945078193300 -2.174898798700
C    5.959421230000 -2.825782142800 -1.964815235600
O    1.229018273600  1.029559487800 -0.937356574600
C    2.216333021000  1.493967710400 -0.096966649500
C    2.151663055400  2.849560388100  0.276306329400
C    3.095068084400  3.387804399400  1.101606318300
C    3.278742050300  0.703619893500  0.296101030200
C    4.210482463800  1.222639314800  1.240674450800
C    4.120308748300  2.582283777500  1.639474801300
C    5.054256718200  3.094291297900  2.564448258000
C    6.020751702800  2.291593966000  3.102164423900
C    6.083135531000  0.936388755400  2.744842637100
C    5.202961758400  0.414774511000  1.837559437000
C   -1.654121622400 -0.509624169900  1.402166966400
C   -2.773000088400 -1.187513455800  0.632879939200
C   -2.479568019900 -1.851982108400 -0.529488901300
C   -3.469924122600 -2.446814364000 -1.318839227000
C   -4.776159405500 -2.382795551900 -0.930591464000
C   -5.125627891900 -1.772550842300  0.291032228700
C   -4.115841996500 -1.188940422400  1.106296643400
C   -4.511920431600 -0.661585859700  2.355566557600
C   -5.818248668500 -0.677989699800  2.758523266900
C   -6.813467731200 -1.215862357200  1.931175270100
C   -6.468186338500 -1.754261801700  0.725131386700
C   -0.882315995200 -1.564000818300  2.197425024200
C   -2.804844040900  1.662233641200 -0.025255130500
C   -3.782539127300  2.040824805600  0.860937641300
C   -5.145364178300  1.953981393100  0.545049356300
C   -5.539812040600  1.456061553000 -0.660794209400
C   -3.193808323300  1.213034467500 -1.321268588500
C   -4.578081370800  1.078232947300 -1.619740632400
C   -4.973628339600  0.582550174100 -2.879307158200
C   -4.049976940500  0.252433485600 -3.829379520300
C   -2.686356068100  0.428747150100 -3.559247528900
C   -2.273258973100  0.898246100800 -2.343197226400
H   -1.482725007300  2.183576077900  2.489333777000
H   -1.391353433100  3.582960721200  1.407905729400
H    0.043827315900  2.597422654900  1.732772965300
H   -0.779436913900  2.116229044500 -0.476869845500
H    1.651949279500 -3.522187891800 -0.526239939100
H    3.782702041200 -4.320762708200 -1.507972930800
H    5.601980055800  0.861211861500 -0.881033076100
H    7.645162474000  0.092319619100 -1.983106317500
H    7.895386471700 -2.269291740500 -2.653304403000
H    6.044566834000 -3.855257681600 -2.282407895200
H    1.350346520000  3.450781545900 -0.126360452800
H    3.051500536700  4.432793496500  1.371724972400
H    4.981128469500  4.134766202900  2.847550632200
H    6.731035139200  2.689113343000  3.812299890200
H    6.831537527100  0.301582714300  3.196509713000
H    5.251255278500 -0.632639151000  1.580630700400
H   -2.097444637000  0.175796061000  2.128011629000
H   -1.452352728300 -1.906757228700 -0.862331175600
H   -3.188560560100 -2.941504896800 -2.236705115600
H   -5.557183562800 -2.814494489000 -1.539946245900
H   -3.771892605100 -0.252565196800  3.025638028900
H   -6.090561645000 -0.274302728700  3.723378995000
H   -7.843089434100 -1.210090642600  2.258437932800
H   -7.220148594600 -2.190251985900  0.082209805600
H   -0.028469723600 -1.109589903800  2.693703656600
H   -0.527486142000 -2.359652076500  1.549725274400
H   -1.543675084200 -1.998728729800  2.945002508900
H   -3.521508885100  2.412735257000  1.838560381900
H   -5.875324380700  2.265791045500  1.277509185500
H   -6.587505220400  1.353235182500 -0.903676559500
H   -6.030773922700  0.474912976500 -3.077979955000
H   -4.360573668600 -0.129483502300 -4.791042769300
H   -1.956601481600  0.195417229300 -4.320954340000
H   -1.215437050800  1.038188843100 -2.176796502100
