82
-125.29595832
C   -0.524889851500  2.256125858600  1.282917496400
C   -1.460379439800  1.536789176700  0.305150134600
N   -0.746250609100  0.656016811200 -0.615886593700
P    0.090197993900 -0.771552902700 -0.160288814500
O    1.003622200200 -0.050306885100  1.009510232000
C    2.120848692600 -0.768464505100  1.382635248300
C    3.256448631800 -0.699004415100  0.604015636900
C    2.083076365900 -1.528001692400  2.562962123100
C    3.186860304300 -2.226674510900  2.958811024600
C    4.351961621200 -2.241853017100  2.163136379900
C    4.386601200200 -1.487601087700  0.959200235700
C    5.529431799200 -1.589408247400  0.136255759200
C    6.598997713800 -2.354856502800  0.509916710800
C    6.583104384100 -3.059581273000  1.723039472200
C    5.478991510700 -3.009269988000  2.526526566600
O    1.221981280500 -0.877913710800 -1.377146443800
C    2.261428399200  0.006934106800 -1.549182514800
C    2.325335771300  0.698361603800 -2.772445821800
C    3.326697003400  1.593304581400 -3.011110277600
C    3.250356540400  0.160763584500 -0.597096147300
C    4.246036107600  1.159713057600 -0.792040185100
C    4.286335563300  1.877056599800 -2.017029840900
C    5.281720744400  2.857877334800 -2.210156372700
C    6.184521949900  3.144447704800 -1.225090683900
C    6.119090194700  2.468032038300  0.002334132400
C    5.176022061800  1.500828414000  0.214390704100
C   -1.416061470900  0.493049761600 -1.919908283200
C   -2.875062204400  0.108729101400 -1.769184134000
C   -3.861360522300  1.062870905500 -1.816053310500
C   -5.204694306200  0.759086178700 -1.559225600600
C   -5.567432913900 -0.513606250800 -1.233790461500
C   -4.603374034500 -1.541920243400 -1.211726188700
C   -3.243770610700 -1.244726493600 -1.511185572800
C   -2.338645745300 -2.327736365500 -1.554972011600
C   -2.733488761700 -3.605065791200 -1.265561750200
C   -4.063710946900 -3.881118191900 -0.922719972000
C   -4.978977048400 -2.867715398800 -0.910045633600
C   -1.184121127300  1.732614364700 -2.790496417700
C   -2.602498492200  0.904077855900  1.078234202900
C   -2.478835083900 -0.366240899000  1.573004613900
C   -3.513716717300 -1.000374183000  2.271094424900
C   -4.691113961100 -0.345486872700  2.482432471800
C   -3.801358398900  1.630265351200  1.335612186100
C   -4.858623305600  0.979915394300  2.031038163200
C   -6.063544908700  1.672911814300  2.274025637000
C   -6.228932483200  2.966173435500  1.868369071900
C   -5.182395024300  3.622114307000  1.205903095300
C   -4.006336093600  2.973519682800  0.948449062300
H   -1.051666513400  3.099444888300  1.725810778300
H    0.354701823300  2.620220483700  0.757105580500
H   -0.206775491600  1.594710862300  2.082231593100
H   -1.880913750000  2.305508303900 -0.346821837200
H    1.170050618800 -1.533994500300  3.139963159000
H    3.172065460600 -2.798917298000  3.874746441200
H    5.546992488200 -1.061007403500 -0.804765836600
H    7.464147795300 -2.423755167200 -0.133312137100
H    7.441339886600 -3.650517420200  2.007560820900
H    5.445259902300 -3.566365293200  3.451969556200
H    1.574727561500  0.480971679400 -3.517473871200
H    3.382570537600  2.111390759500 -3.957476261200
H    5.307847635300  3.386315158300 -3.152637132000
H    6.942498511200  3.898607041500 -1.378644417500
H    6.818955568200  2.720002679800  0.785799766800
H    5.125989550600  0.996087677200  1.167409329400
H   -0.891475425900 -0.326576217800 -2.421471740000
H   -3.620319018200  2.088630768700 -2.044171272000
H   -5.939668848500  1.549438973900 -1.600444599200
H   -6.594054034400 -0.756080260100 -0.999642341800
H   -1.310391604100 -2.163618177700 -1.838670253100
H   -2.015230679700 -4.410966456100 -1.308298799800
H   -4.358144092500 -4.893867710800 -0.688714929900
H   -6.015269198700 -3.064670838800 -0.673580664800
H   -1.628528181800  1.576434698200 -3.770852720100
H   -0.114831930600  1.891501696800 -2.903538097500
H   -1.603364335000  2.636752126300 -2.359127400000
H   -1.559721087100 -0.912525463100  1.411497168700
H   -3.369082012800 -2.009815070300  2.627386871900
H   -5.506498894000 -0.825018678800  3.004929681100
H   -6.855667197300  1.155764734100  2.797337935400
H   -7.154331112600  3.490205653300  2.058813586800
H   -5.309906113200  4.650704861400  0.899410956100
H   -3.218849439600  3.516553196400  0.449450610200
