82
-125.29469962
C   -0.057839837400  1.441482491100  1.271505100000
C   -1.183216946200  0.594380885400  0.672210418000
N   -0.908678470200 -0.852067625900  0.709324437900
P    0.525334895100 -1.590481522700  0.230398003000
O    1.501118943400 -0.949819440400  1.416664008200
C    2.813063566600 -1.357100624500  1.295865179800
C    3.639509772300 -0.771201254200  0.358739313400
C    3.273629570400 -2.380080543300  2.142784646500
C    4.556688309900 -2.830375967100  2.041329687300
C    5.412218155400 -2.332525033000  1.034920972400
C    4.946984413300 -1.308766681200  0.167377457900
C    5.782852535600 -0.903353945600 -0.895621177000
C    7.030824793500 -1.439620175200 -1.054883760200
C    7.510350517300 -2.408595635400 -0.161542622600
C    6.712019734000 -2.850521928700  0.855845402500
O    1.097884300500 -0.704867986500 -1.075672111700
C    1.968626766600  0.344188197200 -1.118268987600
C    1.598597158000  1.396843143000 -1.983110545800
C    2.387394108200  2.498134956100 -2.119058201700
C    3.167785595100  0.382599221400 -0.429997206900
C    3.941922035100  1.581943869500 -0.474937484400
C    3.558408890900  2.637149510800 -1.343609672800
C    4.341869957000  3.808010140800 -1.401610515000
C    5.443384951500  3.955752118400 -0.606229075400
C    5.791075203600  2.940652862200  0.296385391800
C    5.060895291000  1.785924545900  0.361804189000
C   -2.111203657800 -1.677578764700  0.543408729000
C   -2.810904273500 -1.414150293700 -0.776604057900
C   -2.053500501300 -1.418611409300 -1.920040076600
C   -2.608142950000 -1.153010868000 -3.177663907400
C   -3.941562643900 -0.880091066900 -3.286566505900
C   -4.767713754200 -0.884475050700 -2.143981465000
C   -4.208444210300 -1.166370957200 -0.865106275400
C   -5.086061353600 -1.186487634900  0.241977801000
C   -6.419502600900 -0.923767329800  0.100052891400
C   -6.960122157100 -0.628094583600 -1.158991230500
C   -6.148137112600 -0.613793043300 -2.255872228300
C   -1.815530708800 -3.168776609100  0.685655865700
C   -2.440583252700  0.920927758600  1.454624932700
C   -2.469919640900  0.577412630700  2.786518917200
C   -3.571839206900  0.861767173900  3.599936577200
C   -4.658295650800  1.500308275900  3.073016781300
C   -3.559498225700  1.583195836300  0.880636716400
C   -4.679634253200  1.869793519000  1.713368172600
C   -5.808504569800  2.515885313200  1.165299673200
C   -5.848458578400  2.869569316800 -0.151844638400
C   -4.749619208900  2.592389339900 -0.977134008200
C   -3.640679880000  1.971895651000 -0.475839886900
H   -0.395096475700  2.475773496600  1.328928778100
H    0.838051955300  1.413130418300  0.660083764600
H    0.193111123500  1.097424139800  2.270505292100
H   -1.303286493900  0.894093705200 -0.376681492300
H    2.584700888400 -2.783628284800  2.869698566400
H    4.922639614000 -3.598725772000  2.706309675200
H    5.420312683300 -0.168651130200 -1.598369463800
H    7.653714137700 -1.120100789000 -1.877641001400
H    8.503443072800 -2.812147557400 -0.294246710400
H    7.058181816300 -3.616784785900  1.534772124500
H    0.675152814200  1.290880759300 -2.533058785500
H    2.109197543500  3.290792095500 -2.798012740600
H    4.043475518000  4.592808368000 -2.082226069900
H    6.038701881500  4.855736130200 -0.654487854400
H    6.640954945000  3.077551176200  0.949090407300
H    5.331568690500  1.021697214300  1.074211350600
H   -2.774008338100 -1.402788798200  1.366999046200
H   -0.992703490100 -1.619588947900 -1.848747922700
H   -1.971464727000 -1.161367247800 -4.050888383500
H   -4.384823760500 -0.661817160400 -4.247908581600
H   -4.706921486700 -1.414691309400  1.225819020600
H   -7.066985135900 -0.943734589600  0.964630750900
H   -8.015568885700 -0.417677672900 -1.251955293500
H   -6.550472704400 -0.395686075700 -3.235364853900
H   -2.753452544700 -3.705167488800  0.816835016700
H   -1.184069654000 -3.338936259900  1.555665789100
H   -1.316298435100 -3.560923735500 -0.196495023300
H   -1.624573452200  0.055697588800  3.211828647800
H   -3.552770755700  0.571360357200  4.640466074400
H   -5.518221053300  1.727546436000  3.686863011100
H   -6.646926388900  2.722104011300  1.815792131700
H   -6.717767729400  3.359439447500 -0.565489285700
H   -4.784571564800  2.872197485700 -2.020114559300
H   -2.817483535400  1.770991881900 -1.143726298400
