82
-125.29571698
C   -0.155507525900  1.580248521800  1.014280999800
C   -1.200768073100  0.750760019400  0.257868557300
N   -1.009402210900 -0.700933909300  0.395491190800
P    0.408110137700 -1.491372083700 -0.065800358800
O    1.365173875800 -0.892797243300  1.159309343900
C    2.676915929700 -1.304739483500  1.061467274100
C    3.529034112200 -0.697473238900  0.161774269500
C    3.112262496700 -2.352032333000  1.891696176200
C    4.396700420000 -2.803006850000  1.811313288300
C    5.280363776200 -2.279388054900  0.843051967600
C    4.840258014600 -1.231714316100 -0.008937334100
C    5.705690220300 -0.797627826700 -1.036379825300
C    6.957879974500 -1.329791474500 -1.174496031600
C    7.411806945100 -2.323316342300 -0.294768696700
C    6.584812811100 -2.793098911500  0.686616048200
O    1.035593293700 -0.605473123800 -1.340026348100
C    1.898906328500  0.453224980400 -1.331529678900
C    1.549700799800  1.526132590700 -2.178575263600
C    2.337244208200  2.633938337900 -2.260755638400
C    3.077906112400  0.476684141200 -0.609132376100
C    3.849380242800  1.678245363300 -0.599876504800
C    3.485237560000  2.755969617000 -1.448969895200
C    4.265875895900  3.930230651800 -1.452634404900
C    5.345514794700  4.058064462600 -0.624422603100
C    5.673417957900  3.018560314100  0.257633760200
C    4.945513904200  1.860679254300  0.271314369600
C   -2.235462390000 -1.491438326700  0.245723035000
C   -2.930979736200 -1.245878065600 -1.078650110800
C   -2.173066325800 -1.244704047900 -2.221241184400
C   -2.733637252700 -1.004102528100 -3.481651890200
C   -4.073061024400 -0.764767242800 -3.593827323800
C   -4.900001639500 -0.777913982700 -2.451239023700
C   -4.334078013800 -1.030857467700 -1.169337259300
C   -5.210112597000 -1.060305143100 -0.061232096700
C   -6.550886710200 -0.837485880200 -0.206135039000
C   -7.099620567900 -0.573203312900 -1.468912398900
C   -6.287632210500 -0.547200962400 -2.566236519900
C   -1.976509584100 -2.986284042200  0.422432354400
C   -2.571421557400  1.220083739200  0.700171737100
C   -3.333261583900  1.922510416200 -0.199372229600
C   -4.574638128500  2.470323655600  0.149432043100
C   -5.055862835500  2.317442819600  1.416730475800
C   -3.060009865700  1.032764497700  2.023959288800
C   -4.316989154200  1.596657518700  2.377585411800
C   -4.813134273800  1.416229899000  3.686931024700
C   -4.111526859100  0.700054584800  4.614405157200
C   -2.882333545300  0.122147130100  4.263704936600
C   -2.371703443500  0.282111201900  3.005474097400
H   -0.103109188400  1.298050191400  2.060435912300
H   -0.436179351000  2.630751529200  0.949495522100
H    0.831347629300  1.468786045000  0.577418761500
H   -1.107761607800  1.010754131900 -0.810018161700
H    2.403909227200 -2.773346472300  2.589230879200
H    4.743255085800 -3.590550177900  2.464124864000
H    5.362998772000 -0.043466483900 -1.728421596900
H    7.604207700000 -0.987728794800 -1.969654454100
H    8.408688180200 -2.722995318300 -0.409695127800
H    6.911971914700 -3.577804831900  1.353793041200
H    0.644674258300  1.431910426800 -2.760565172900
H    2.075458152200  3.443763784000 -2.925808776300
H    3.983269684100  4.733392107700 -2.118369010800
H    5.939059009700  4.960488510300 -0.631573688100
H    6.506046096500  3.138778616900  0.935369589200
H    5.200004071000  1.076867112500  0.968239273100
H   -2.891621635300 -1.183910085900  1.061954295800
H   -1.108624542800 -1.426253943700 -2.149001214600
H   -2.096980182300 -1.006770284800 -4.354897234800
H   -4.521180945300 -0.568450412300 -4.557657383200
H   -4.825201023000 -1.265013642300  0.925469068300
H   -7.197013584400 -0.864315081200  0.659414808500
H   -8.160958368000 -0.395937657100 -1.564961504500
H   -6.696036004400 -0.352278355800 -3.548160157300
H   -1.344803704900 -3.151769936000  1.293285328300
H   -1.491813195700 -3.410642447200 -0.453114945400
H   -2.926294119700 -3.496436395800  0.570999974100
H   -2.970982509600  2.062932050500 -1.208633499800
H   -5.140305767500  3.011677601900 -0.594634684400
H   -6.009088967500  2.738935023800  1.701995792000
H   -5.768298603200  1.855441688100  3.938738685200
H   -4.499150608500  0.566390669300  5.614045579700
H   -2.340178875100 -0.458104161800  4.996685951600
H   -1.438332135300 -0.192237955300  2.746642709700
