82
-125.29271357
C   -1.255968437800  3.292211718600 -1.484539822400
C   -1.721782708200  1.833148976400 -1.497790903900
N   -0.967138235300  1.006520966700 -0.540913889100
P    0.361738690100  0.356052543500 -1.350186270100
O    0.859873138500 -0.749857722700 -0.234866649300
C    2.061184388600 -1.357026535900 -0.560196483100
C    3.251341424500 -0.717433453700 -0.286934292500
C    2.027193590100 -2.631074187200 -1.149324389100
C    3.191202641200 -3.266140855000 -1.470569467800
C    4.434025927800 -2.626102096300 -1.278349027100
C    4.469761025700 -1.327987438700 -0.702448026800
C    5.714964975100 -0.668976714200 -0.612378311600
C    6.867100802100 -1.283257666500 -1.018878396200
C    6.836250353000 -2.586432591800 -1.537193468900
C    5.642866794300 -3.238488424700 -1.671263042200
O    1.643560525000  1.447979923400 -1.203271922300
C    2.452058473400  1.617119765400 -0.114751060600
C    2.500502518700  2.907829002400  0.450244938500
C    3.288960876900  3.160954347900  1.532813127200
C    3.231336054600  0.592730866100  0.391626202600
C    3.982895000500  0.819818975800  1.580196945900
C    4.024413409100  2.122892607000  2.143353606700
C    4.785151253500  2.348221062700  3.309381802800
C    5.453959034400  1.324493995300  3.919526503900
C    5.372869830000  0.026297710300  3.394431224100
C    4.656220190300 -0.221083250100  2.256399859100
C   -1.287679444500  1.244316551800  0.867793340300
C   -2.642505535500  0.694200994100  1.289114215000
C   -3.500574881600  1.559426165400  1.923712720600
C   -4.755983672300  1.155588968300  2.392207578300
C   -5.160787115500 -0.136705286300  2.226600287800
C   -4.308565837300 -1.073091144000  1.608381288300
C   -3.027610311200 -0.665659940400  1.140882673300
C   -2.197865356700 -1.648154696300  0.560674252000
C   -2.601399496600 -2.949641080200  0.454797382300
C   -3.869468855700 -3.343344114100  0.903439279900
C   -4.703886929200 -2.419829359800  1.464072594100
C   -0.235693238300  0.767985429400  1.871445627700
C   -3.217693801100  1.650950671900 -1.363519455800
C   -4.030425117900  2.668409645100 -0.932180636000
C   -5.417328090700  2.504422168000 -0.814382369200
C   -5.998015365500  1.312796597700 -1.134261920200
C   -3.804603080500  0.407078053200 -1.733650735200
C   -5.210717905100  0.242293216900 -1.605173595200
C   -5.802199720500 -0.987090938900 -1.963469210800
C   -5.047057655600 -2.016163849600 -2.448060631300
C   -3.662433311900 -1.853967653400 -2.591103835000
C   -3.058106998500 -0.679879582200 -2.237643863000
H   -0.190507584700  3.313792913700 -1.704732184400
H   -1.417603223600  3.772437941900 -0.522910789600
H   -1.780912324700  3.854767403700 -2.252511413100
H   -1.441605434900  1.449653204700 -2.489946155700
H    1.064071493300 -3.084051870100 -1.329654688900
H    3.173584240900 -4.254986563000 -1.904342830200
H    5.749090173100  0.338555877200 -0.226793791700
H    7.810617258900 -0.762373077000 -0.945957846700
H    7.757352092900 -3.060990704700 -1.842156138300
H    5.602528553800 -4.232777972300 -2.092634051900
H    1.901773572800  3.682273114800 -0.005685458300
H    3.337613255400  4.154996026700  1.952889101600
H    4.818548436900  3.348859964300  3.716552107400
H    6.033816625600  1.503872295800  4.813010601600
H    5.878733217000 -0.783683749800  3.899500443400
H    4.589740338300 -1.226953321100  1.870497178100
H   -1.349022896900  2.335699679000  0.995375333800
H   -3.209525058700  2.591780755200  2.064196629400
H   -5.396778034500  1.877246911400  2.877847557300
H   -6.130833035200 -0.463470449700  2.573539334800
H   -1.227908604500 -1.361945090300  0.197724673400
H   -1.943438675700 -3.686816382600  0.017320453000
H   -4.177658449200 -4.374288925400  0.803321163300
H   -5.685064300300 -2.707126254600  1.816134916700
H    0.740611945200  1.184017646900  1.636106647100
H   -0.164687559200 -0.314252292700  1.901475536700
H   -0.527236513200  1.118240618800  2.860797142800
H   -3.612771811600  3.624973497300 -0.662454121000
H   -6.016891444100  3.332107778500 -0.464043621800
H   -7.065353586400  1.172495176700 -1.039766333700
H   -6.871786318500 -1.095160901300 -1.849631698800
H   -5.507126484700 -2.954024770500 -2.723619413700
H   -3.070185620000 -2.669438210400 -2.980173425200
H   -1.986971646500 -0.589053228100 -2.342026239200
