82
-125.29843439
C   -1.051981010000 -1.233025642100  3.246900208400
C   -1.116215581900 -0.453940258300  1.928095766000
N   -0.959934469300 -1.352451404500  0.776444460900
P    0.530673686200 -2.031081244200  0.349718302000
O    1.438531135000 -1.133303840200  1.395924270800
C    2.797406126500 -1.356066451000  1.244797607300
C    3.488144464500 -0.705572277000  0.245796704600
C    3.436117034400 -2.233990008900  2.134952135100
C    4.775335529800 -2.467007304900  2.020370000600
C    5.515289475200 -1.889103037000  0.966780015900
C    4.865823910300 -1.018653611400  0.051053434700
C    5.603051286600 -0.539943230700 -1.053504490500
C    6.924456903100 -0.856147684700 -1.208745119100
C    7.579094795500 -1.667741214900 -0.270657657700
C    6.884245571700 -2.180292372100  0.788465818900
O    0.983077451700 -1.264552395300 -1.085045372500
C    1.621150134600 -0.070366328600 -1.268972215400
C    1.075516581100  0.787474038100 -2.246183643000
C    1.652615841900  1.991113730400 -2.519729809900
C    2.793824278200  0.268587092700 -0.617255035700
C    3.329349698500  1.577851073000 -0.799046960600
C    2.762286937100  2.440164182400 -1.773319506400
C    3.311794036000  3.724273591300 -1.966648746800
C    4.359019230000  4.160832862400 -1.204700882900
C    4.887984377500  3.331108472000 -0.205350169900
C    4.388291325900  2.073453938100 -0.007298329200
C   -2.173453819000 -2.081643664500  0.406436729000
C   -3.039967329600 -1.235424803700 -0.509927910100
C   -2.427523051200 -0.560684343700 -1.534150522000
C   -3.138671667000  0.280752043600 -2.395584368300
C   -4.481996832800  0.449649823400 -2.222893317500
C   -5.166011155100 -0.257573857300 -1.213630264400
C   -4.448933185400 -1.137363208400 -0.355010210600
C   -5.190003272600 -1.870828261000  0.598007739700
C   -6.543709976300 -1.723238009300  0.717625903500
C   -7.239249387600 -0.828021727100 -0.107188515300
C   -6.560887541100 -0.115863536200 -1.054020922700
C   -1.878713245100 -3.411327160700 -0.284147544900
C   -2.365777320800  0.388985385900  1.777422647900
C   -3.493918340400  0.124625244000  2.513402038600
C   -4.666029698100  0.879207934200  2.369471717400
C   -4.714863348800  1.907308044200  1.475762276500
C   -2.383130012200  1.480049704100  0.861549521800
C   -3.578380311900  2.234862320800  0.708624352500
C   -3.610394746400  3.310849128600 -0.202591498500
C   -2.504958886100  3.651894753200 -0.927887496200
C   -1.320483011500  2.919533731800 -0.772234298200
C   -1.264763035900  1.859581845200  0.089176942700
H   -1.229295504300 -0.564990882600  4.086380807600
H   -0.059272225100 -1.664044035700  3.349215761900
H   -1.774466855600 -2.045120556500  3.276841651800
H   -0.255439544000  0.220653080500  1.922671584100
H    2.842501233000 -2.702932436700  2.905320539400
H    5.278915925200 -3.121589195500  2.716177231700
H    5.107651662300  0.073501980700 -1.790284176100
H    7.470985884900 -0.483301536400 -2.062665909800
H    8.626545959400 -1.896515431200 -0.401559631100
H    7.369145270200 -2.829705715600  1.503258643900
H    0.201534045900  0.453288446000 -2.783323008500
H    1.249780465400  2.625764525200 -3.296041603800
H    2.877156446700  4.361851464900 -2.723666315100
H    4.773808025600  5.146745821500 -1.355474746300
H    5.694327378200  3.694302305500  0.415187032300
H    4.795173951300  1.451240248600  0.775578889000
H   -2.726132769300 -2.292754688800  1.326728489400
H   -1.362263445000 -0.671038206400 -1.657356605400
H   -2.615995030900  0.804876061100 -3.182675104900
H   -5.043138543300  1.115950142100 -2.862715437600
H   -4.687197229500 -2.577786603500  1.239538767500
H   -7.087697182800 -2.299898837900  1.452242478100
H   -8.307769123400 -0.715267249000  0.006798360900
H   -7.084993088300  0.567082824100 -1.708254369300
H   -1.346338216100 -4.084935378900  0.384267298500
H   -1.275160958100 -3.248668975600 -1.175266323600
H   -2.817749940200 -3.875457160800 -0.580536346300
H   -3.505591576200 -0.683548027600  3.227161307400
H   -5.529296249800  0.629178054500  2.968653343100
H   -5.616741994300  2.488298949300  1.346717402900
H   -4.532397168500  3.865280605900 -0.309309557600
H   -2.534188541500  4.481752676000 -1.619291286700
H   -0.444119747100  3.193745534800 -1.340567338700
H   -0.342260027900  1.306675437800  0.171666497100
