82
-125.29457813
C   -2.763282289700  1.328371376800 -0.827925438600
C   -2.353449461600  0.719746168300  0.516430562500
N   -2.040016869200 -0.708191394100  0.372250877100
P   -0.557880649000 -1.426956926700  0.055281362300
O    0.355117185100 -0.635115361900  1.195517729300
C    1.691736284900 -0.953543146800  1.180376956000
C    2.523094253600 -0.417388589300  0.219335705000
C    2.178555641800 -1.820323355000  2.174405149300
C    3.495117058700 -2.173782786400  2.191509130700
C    4.365362446500 -1.739809841800  1.167951110700
C    3.874879431300 -0.872139761800  0.155966372100
C    4.736378407800 -0.541792263600 -0.912615893400
C    6.026938079300 -0.993599814700 -0.944811915500
C    6.526609525300 -1.799926159100  0.087900910500
C    5.707183458800 -2.171802573600  1.116519381800
O    0.018876636900 -0.660008135600 -1.310305026900
C    0.868739609100  0.394524545600 -1.468519416300
C    0.541811227100  1.265669167900 -2.530510918300
C    1.293562110400  2.371549978200 -2.787633185900
C    2.020600445600  0.591703221900 -0.729868627100
C    2.738780421600  1.813830645800 -0.904434785100
C    2.378892270400  2.703905128200 -1.949300863200
C    3.101800087700  3.901992810900 -2.122084018400
C    4.119775790400  4.235733340600 -1.273190554600
C    4.442157675200  3.385715964800 -0.205654531700
C    3.772353079700  2.206566965500 -0.026796121500
C   -3.187966255100 -1.594679254200  0.570114433000
C   -4.272231419200 -1.492175177700 -0.490195044600
C   -5.541480902100 -1.179569421600 -0.065171268900
C   -6.629398918300 -1.116720326300 -0.945933272700
C   -6.445508370100 -1.373376518700 -2.273360268400
C   -5.163494926700 -1.695349675400 -2.765098199800
C   -4.055423761500 -1.755974178600 -1.872057814000
C   -2.791156472700 -2.066472671400 -2.417159285000
C   -2.630050351300 -2.312428046000 -3.752313157200
C   -3.726514931100 -2.264014987800 -4.625075785300
C   -4.965129914000 -1.958449319200 -4.137453024500
C   -2.801277640300 -3.058632958500  0.778580042100
C   -1.254690349600  1.494446528800  1.220502349000
C   -0.499702126400  2.426896653700  0.556044890500
C    0.514885246600  3.152761971600  1.197329194600
C    0.781048649500  2.943830634900  2.517378005800
C   -1.015034204900  1.281182153000  2.611302880000
C    0.025043570000  2.007461123300  3.253389757600
C    0.293763508300  1.780469194800  4.619619671000
C   -0.430765855600  0.874786000800  5.341054196900
C   -1.463779271900  0.162397475100  4.717432773400
C   -1.745593318400  0.361876097600  3.393873421100
H   -1.983120576200  1.192840381400 -1.569585017400
H   -2.974924970200  2.388809829100 -0.710468132700
H   -3.661803320300  0.835117192900 -1.190246968500
H   -3.240502683800  0.778389241800  1.165365697900
H    1.481830271400 -2.179295274100  2.917103025400
H    3.880726532300 -2.817961902400  2.968027954600
H    4.360894133600  0.064779804000 -1.722528643200
H    6.668293720500 -0.733473660100 -1.774317702000
H    7.552242264900 -2.137087023400  0.053943797800
H    6.069836604500 -2.817238655900  1.903880387000
H   -0.313232255000  1.013598930300 -3.141193170000
H    1.047790475600  3.021451046500 -3.614916226500
H    2.822129350000  4.559532581300 -2.933249206600
H    4.666924576200  5.157480852000 -1.407436475800
H    5.223260852300  3.671377469800  0.483966949000
H    4.018496467400  1.573118561900  0.811693409900
H   -3.664207705600 -1.274713029100  1.511692940300
H   -5.718779912400 -0.977490103800  0.982834004700
H   -7.607567326400 -0.866967273300 -0.561533163200
H   -7.274224507000 -1.334258243600 -2.965858673000
H   -1.926893521000 -2.090765007300 -1.773239825400
H   -1.648514582100 -2.543395973800 -4.140725528100
H   -3.583254935900 -2.463463035300 -5.677323789100
H   -5.819662471500 -1.909737167300 -4.797997468700
H   -2.412388218800 -3.511330159400 -0.127848313400
H   -3.688535511100 -3.611432079700  1.083520417600
H   -2.052499461900 -3.135241249100  1.564875388000
H   -0.660749325400  2.619128893200 -0.491911601600
H    1.086170318400  3.869945797900  0.626022253000
H    1.571126819900  3.486643567000  3.017125713100
H    1.092643925200  2.341423463700  5.085024749600
H   -0.216125351600  0.704056398400  6.386319041400
H   -2.038662324100 -0.551396471800  5.290789328200
H   -2.540868679800 -0.208487299800  2.943501371000
