82
-125.29842771
C   -1.329996976100 -1.529348807200  3.248390199600
C   -1.174759446700 -0.596781752200  2.042086913400
N   -0.957869378800 -1.332070059000  0.788162313900
P    0.531352278700 -2.147134615900  0.563096930200
O    1.414113863400 -1.091500582600  1.477609750700
C    2.781186516800 -1.260429715800  1.344988576000
C    3.427831721500 -0.695430936300  0.268018799900
C    3.475147741600 -1.980441721300  2.329857652100
C    4.826323500200 -2.142569035600  2.228281633600
C    5.527090381400 -1.646013670400  1.108647973400
C    4.822862340800 -0.931433448000  0.102489877600
C    5.528774747700 -0.527861992600 -1.051521699800
C    6.868192842100 -0.772416384300 -1.178154008300
C    7.572535028800 -1.432624260700 -0.160363644400
C    6.912219373200 -1.866496379700  0.954526650300
O    1.023355648600 -1.662085967200 -0.960638191600
C    1.536228505800 -0.440264103000 -1.314582029900
C    0.925498797200  0.218317954400 -2.400106931500
C    1.366076759900  1.442149193700 -2.808115722400
C    2.656862179200  0.097753285300 -0.709493036200
C    3.058849735800  1.420676553600 -1.052343190500
C    2.407158571900  2.096824428300 -2.116970228900
C    2.814717295900  3.403596753000 -2.457541456500
C    3.803726755400  4.034950174100 -1.756507625100
C    4.419374390500  3.385074379900 -0.676453037200
C    4.058917996600  2.111170259100 -0.333548974500
C   -2.155423789100 -2.018032741300  0.294767744400
C   -3.030418921100 -1.075724374900 -0.512531426800
C   -2.436338318700 -0.128549029400 -1.303513938700
C   -3.184265238800  0.768840249600 -2.073953472000
C   -4.547257434600  0.715734628500 -2.047242958700
C   -5.207931961800 -0.254556390900 -1.265926738000
C   -4.448784292100 -1.180567478800 -0.496665775200
C   -5.158034096700 -2.157496791600  0.237346613400
C   -6.524673444900 -2.203797063400  0.231904983100
C   -7.266724088200 -1.274875320100 -0.510841183800
C   -6.617091200800 -0.324607217800 -1.245550762800
C   -1.821931069200 -3.232429744400 -0.573381786200
C   -2.303104179400  0.396249721300  1.867567155900
C   -3.546629572900  0.170728652200  2.400254935500
C   -4.599111750700  1.080567149300  2.227347158600
C   -4.405433049200  2.226875063000  1.515260761000
C   -2.072788941000  1.592871679700  1.128825427200
C   -3.143367656100  2.511365133500  0.953722183400
C   -2.930362441300  3.694837491100  0.216264093500
C   -1.710502120100  3.973332046900 -0.331378741000
C   -0.650401232600  3.071968362900 -0.162407135300
C   -0.828036906000  1.914731355700  0.543833380400
H   -1.501352976400 -0.943773372500  4.148560633600
H   -0.407008254300 -2.094546784600  3.367551817000
H   -2.144439125900 -2.239729240200  3.132087833000
H   -0.264714537500 -0.021047848400  2.224015966800
H    2.915012276000 -2.386952165200  3.158520995100
H    5.371703937400 -2.678475211200  2.990957209500
H    4.994972392200 -0.030977542400 -1.847068975400
H    7.391280705700 -0.460266914600 -2.070255609800
H    8.632480351700 -1.607602544100 -0.272350657200
H    7.438315965700 -2.398166676200  1.734489962000
H    0.120785337400 -0.286414729300 -2.912888835200
H    0.905379446300  1.934587891400 -3.651952111200
H    2.316519456700  3.900589940800 -3.278067929600
H    4.107854191000  5.037568878400 -2.019451271600
H    5.181180036600  3.900925554700 -0.110212869000
H    4.530113242800  1.625848889800  0.507972290200
H   -2.731032273900 -2.369048444300  1.157231894700
H   -1.361604622400 -0.054673656600 -1.305888349700
H   -2.671963802600  1.506077613900 -2.674564153200
H   -5.141090607000  1.410271537400 -2.624580657900
H   -4.618450552000 -2.895677470100  0.810344638800
H   -7.042058926300 -2.962389989800  0.802056634100
H   -8.346133666600 -1.321752946200 -0.501040630800
H   -7.174895496000  0.392516282200 -1.831757190800
H   -1.140060639300 -2.950200567300 -1.372116584200
H   -2.737223858400 -3.618051658900 -1.019217903500
H   -1.363256771100 -4.020876598400  0.020211569500
H   -3.745070168200 -0.724771732900  2.967591813600
H   -5.563663126800  0.857395085300  2.659931780800
H   -5.211723262000  2.931534113700  1.368998930800
H   -3.758523322800  4.378837085000  0.092611326500
H   -1.554338835000  4.882109511300 -0.894775911500
H    0.313113136300  3.293273056400 -0.598222701900
H    0.003934861700  1.235075282200  0.639945884800
