82
-125.29517489
C   -1.774211265800 -2.324616077000  2.433887168900
C   -2.223522755800 -1.448552867800  1.254580389500
N   -1.202635720100 -0.478933659200  0.851044441100
P    0.016021736600 -1.045904995300 -0.158689718700
O    1.212560255100 -1.298853614500  1.009453830600
C    2.439565465300 -1.619908783200  0.481708624100
C    3.250046473600 -0.619107068100 -0.012531186600
C    2.840666117100 -2.966672207100  0.457954549400
C    4.048507691900 -3.311031491400 -0.073608700700
C    4.878081573500 -2.334191547900 -0.665078121600
C    4.470244403500 -0.973405889500 -0.656100831600
C    5.269616431800 -0.030508384900 -1.338136764400
C    6.434730151500 -0.405532085600 -1.947941634800
C    6.862509533800 -1.740855198000 -1.909864976300
C    6.094165696600 -2.684706282800 -1.288209145700
O    0.642225444500  0.324463811200 -0.842639559400
C    1.581053665600  1.194538405000 -0.333082977700
C    1.242343343400  2.563277145800 -0.368538137600
C    2.102026245300  3.505139871200  0.112210977700
C    2.822869799600  0.787231374400  0.112887086400
C    3.685950785600  1.750930657000  0.715245291400
C    3.324590535600  3.123323409700  0.703872225600
C    4.189477289200  4.072047838100  1.287627379300
C    5.352463849400  3.683031131700  1.891104924000
C    5.687747393900  2.322507233300  1.948511996300
C    4.877276449900  1.380888674500  1.376346340400
C   -1.158489708600  0.820073098300  1.520891199300
C   -2.529519876000  1.469784280900  1.558259574400
C   -3.196169571300  1.674322517400  2.741018155300
C   -4.439992350200  2.321477322200  2.786989592500
C   -5.020560949600  2.778930825100  1.640460662700
C   -4.385088492300  2.584383241200  0.396273689600
C   -3.132525180400  1.911374197500  0.342996484600
C   -2.554576426400  1.700220865000 -0.928199535100
C   -3.162565624300  2.144634666400 -2.069426198000
C   -4.385220274900  2.827256176900 -2.008759643200
C   -4.982808557100  3.037290245400 -0.798877976000
C   -0.454339689100  0.765585979700  2.880490282700
C   -2.599849469000 -2.283595868200  0.049184463000
C   -1.827303052100 -3.374736080400 -0.271822759600
C   -2.067279276600 -4.144588352500 -1.416137490100
C   -3.090517417300 -3.815201158200 -2.256940025700
C   -3.702078682100 -1.948935179200 -0.786749492100
C   -3.930348137400 -2.722518128200 -1.961413548000
C   -5.003525479100 -2.392912828200 -2.816967066800
C   -5.842503216700 -1.354926465600 -2.529337562400
C   -5.646543908500 -0.612661009100 -1.356592072100
C   -4.610021586900 -0.901517312200 -0.513841868200
H   -0.727180530600 -2.595532309600  2.328395580800
H   -2.378880290200 -3.227730613600  2.477874434000
H   -1.892527287600 -1.792461895300  3.373910639700
H   -3.092019822400 -0.872258337400  1.583824678300
H    2.173505099700 -3.706609548600  0.874013690100
H    4.371660715400 -4.341716380800 -0.076162098100
H    4.943959452500  0.997502182300 -1.385876365500
H    7.031417194800  0.329192595500 -2.468716627700
H    7.791161505700 -2.017406637500 -2.387193243100
H    6.399469548700 -3.721335859900 -1.273910039200
H    0.292590333400  2.842640631500 -0.801443498200
H    1.843255978100  4.552746193200  0.067584212900
H    3.905732444600  5.114405802200  1.256644332300
H    6.009818931000  4.414289434000  2.338144463800
H    6.592566797100  2.018634030200  2.454437172800
H    5.139777033500  0.335873745500  1.440886666200
H   -0.535068989200  1.460806090200  0.889442352600
H   -2.768813898700  1.342409612700  3.673511860400
H   -4.925826911300  2.457626972500  3.742430969100
H   -5.972742817600  3.289543037500  1.665874023600
H   -1.629306596400  1.155017013500 -1.010903976400
H   -2.700315786500  1.963875283500 -3.029342582600
H   -4.850412187100  3.174268683900 -2.920074784800
H   -5.931972130300  3.551425155600 -0.735257267900
H   -0.982820824700  0.141281008800  3.593618740200
H   -0.357904629800  1.771215433500  3.285259955700
H    0.541175447500  0.350271359700  2.743735186900
H   -1.007383430600 -3.656850188800  0.370194679300
H   -1.428714825700 -4.989494034000 -1.628530202500
H   -3.278096656000 -4.388312900300 -3.153719172500
H   -5.150162998400 -2.988136292600 -3.707467560900
H   -6.661429585500 -1.108245539600 -3.189308436100
H   -6.321926858900  0.195767106800 -1.117762552200
H   -4.499429819400 -0.312217995600  0.381224527700
