82
-125.29262028
C   -0.433552899600  1.796850788600  1.445028193300
C   -1.420868044200  0.762133581300  0.907030014700
N   -0.832701221900 -0.294637014800  0.067956386400
P    0.377159330200 -1.398605447000  0.603528546200
O    1.318770972200 -0.281371241900  1.372259605400
C    2.625460957900 -0.672289876200  1.583469147100
C    3.540426832600 -0.558745006900  0.558627656100
C    2.999470297600 -1.140441540800  2.853336827700
C    4.292815617300 -1.506129346100  3.091458832700
C    5.251435907300 -1.473535031400  2.056877147500
C    4.871966923200 -1.014006352600  0.766900744300
C    5.823882722000 -1.073247477200 -0.274198175000
C    7.095687784200 -1.516607281700 -0.039003176400
C    7.482993972200 -1.924087964100  1.246572488000
C    6.576636171100 -1.909389445100  2.269064442600
O    1.278654903900 -1.587225331200 -0.781090956500
C    1.994731889400 -0.568439270900 -1.364000456900
C    1.622104259500 -0.157990135100 -2.657094486100
C    2.297847456500  0.846235710300 -3.286850114400
C    3.090742858400 -0.008752032100 -0.735646288300
C    3.748870044300  1.098453502000 -1.340713010000
C    3.350596969800  1.522695981800 -2.636283364100
C    4.012731340000  2.612798833900 -3.239226581400
C    5.008160076900  3.279432122000 -2.581847156900
C    5.372631786500  2.890216888100 -1.284029746100
C    4.760215141000  1.828269409200 -0.678257756200
C   -1.948845267700 -0.970769245800 -0.623695330200
C   -2.580544337100 -0.032097140900 -1.635308640700
C   -1.774792190600  0.837096875700 -2.328036353400
C   -2.289512633400  1.707305850200 -3.296745574900
C   -3.626806309400  1.705633943700 -3.572498198700
C   -4.496220796200  0.829727651700 -2.889486807400
C   -3.976416887400 -0.061226554700 -1.907747565100
C   -4.886671354700 -0.924247026900 -1.256699712000
C   -6.221533320800 -0.905085417400 -1.550809771600
C   -6.727981328900 -0.022528537700 -2.515646310400
C   -5.879754088800  0.824899136700 -3.168892612000
C   -1.553891262900 -2.249606046400 -1.360898616300
C   -2.272383212700  0.202778707100  2.032079687300
C   -1.687075430700 -0.660276717100  2.923353144800
C   -2.406043160100 -1.251617333500  3.968905996100
C   -3.734402842500 -0.974883874200  4.119051752400
C   -3.652469533900  0.523633469800  2.177054300300
C   -4.384425673300 -0.088964164200  3.234929947500
C   -5.758768150300  0.194872061800  3.387053530200
C   -6.400177322600  1.052082319100  2.539795094300
C   -5.683711542600  1.668034439800  1.504142800500
C   -4.352251174200  1.412634593100  1.329576035200
H   -0.994822748300  2.677909701500  1.753179818300
H    0.269526791100  2.082775713400  0.666639929000
H    0.119656495900  1.428266360000  2.302248597400
H   -2.064882932500  1.302659596100  0.207074993100
H    2.245413020300 -1.193837147500  3.624663921300
H    4.591815270600 -1.850891728700  4.070396534800
H    5.532050388300 -0.773057124500 -1.269084422200
H    7.810638613600 -1.559132515300 -0.847716417500
H    8.495017778500 -2.261291589200  1.416436045300
H    6.856629983700 -2.242591690000  3.258270133400
H    0.802686892000 -0.668269765600 -3.140333503100
H    2.017390868400  1.149184994000 -4.285260200100
H    3.708036321700  2.915751979400 -4.231009373300
H    5.509974419500  4.114345813400 -3.048783312300
H    6.141368178600  3.440114728100 -0.760750861800
H    5.039106173000  1.545436489600  0.325603377600
H   -2.697675643800 -1.242114893600  0.134014007400
H   -0.719180108600  0.860287294000 -2.103041059200
H   -1.618931675600  2.376417061300 -3.816278797300
H   -4.040345273100  2.372502958100 -4.315786754200
H   -4.530128061500 -1.616679959400 -0.509931525400
H   -6.896085534700 -1.573628369200 -1.035496067200
H   -7.785811279700 -0.019982926500 -2.735035318600
H   -6.254727024600  1.509930793700 -3.916601362300
H   -0.806054507600 -2.042782949600 -2.119965190400
H   -2.438000376800 -2.659390483700 -1.846705348800
H   -1.155808296600 -2.994046952700 -0.673724075800
H   -0.639036015000 -0.899415844900  2.812440876400
H   -1.901972915500 -1.926688039300  4.645066643500
H   -4.307914958900 -1.428356351500  4.914919320600
H   -6.294474096800 -0.283889158000  4.194865741000
H   -7.452609467800  1.262829933200  2.661555411600
H   -6.191622434800  2.349130292500  0.836708906900
H   -3.836675273600  1.908896792400  0.522144512200
