82
-125.29231269
C   -1.439040886400  0.737894873100 -3.176940815300
C   -1.969791049700  0.559892078100 -1.754284102700
N   -0.945955777200  0.078528539800 -0.817849404500
P    0.418228601400 -0.626395473700 -1.562337091300
O    0.995291158900 -1.409557758000 -0.235981491100
C    2.309223218400 -1.824759453900 -0.335183135400
C    3.326476928500 -0.924357526800 -0.102562685300
C    2.571407375300 -3.171411829600 -0.633912537400
C    3.860096638300 -3.613452871300 -0.713805643100
C    4.938146311700 -2.716392898500 -0.558240015800
C    4.674702346000 -1.350424957200 -0.269122154800
C    5.764808395100 -0.455394909200 -0.207568748700
C    7.048049463700 -0.897631160400 -0.373033763400
C    7.309888394900 -2.255628637900 -0.608536873400
C    6.275042615900 -3.142658356300 -0.706383516800
O    1.511550840600  0.645355912800 -1.621616543900
C    2.133987343400  1.197445756200 -0.533287392300
C    1.926549015500  2.569683794100 -0.294680537000
C    2.505666256000  3.182503275200  0.777323090600
C    2.989848801100  0.464619325500  0.267705020400
C    3.526713861500  1.066895031400  1.440478601200
C    3.285328089500  2.443677466200  1.692004613000
C    3.829071313400  3.039787592600  2.848970925800
C    4.558077160500  2.304177069300  3.740608359600
C    4.760039214000  0.933970898000  3.517091673000
C    4.258200571900  0.330094157000  2.397607104100
C   -1.577899915100 -0.298482521100  0.445205946400
C   -2.312256538400 -1.626751945000  0.397926323600
C   -1.929126835800 -2.608176784700 -0.477452926200
C   -2.561963359300 -3.857627621100 -0.519832503900
C   -3.597294909200 -4.125484867200  0.327267556200
C   -4.049545425100 -3.141832505300  1.231780185300
C   -3.412697583200 -1.869338014500  1.270616893200
C   -3.926272462000 -0.908475636500  2.170525480400
C   -4.984510617300 -1.191251661300  2.989610803500
C   -5.593202900600 -2.453725872600  2.961087825500
C   -5.134319301200 -3.404920813900  2.095393215300
C   -0.631062966400 -0.246673389100  1.650382198000
C   -2.529439635500  1.894202998400 -1.289673859500
C   -1.723308893200  2.753468900200 -0.587352106700
C   -2.172509674300  4.010168362800 -0.163278903100
C   -3.445785716700  4.410308207200 -0.449851596000
C   -3.859474709800  2.287749771300 -1.606781981900
C   -4.313824227700  3.565415915100 -1.172701878500
C   -5.630288083000  3.974202081800 -1.475834564300
C   -6.474993186600  3.165338402100 -2.180769700300
C   -6.032688177200  1.906614028900 -2.612537185100
C   -4.763212954100  1.481001132700 -2.334698850200
H   -2.173281385100  1.280163344800 -3.770016694100
H   -1.253497324500 -0.223491399600 -3.650309018200
H   -0.513644426100  1.309306004000 -3.162165542800
H   -2.784089986400 -0.179234877300 -1.774766400800
H    1.732726561800 -3.834413154800 -0.785636569000
H    4.070227725300 -4.651703043500 -0.924520419700
H    5.573703272100  0.593495206200 -0.039280576400
H    7.869910274800 -0.198039672000 -0.327211991500
H    8.330522488700 -2.589219596300 -0.725862085400
H    6.462313109300 -4.187146523500 -0.911075431800
H    1.318000275700  3.119950641200 -0.996744521700
H    2.356972623400  4.238796112300  0.948730489800
H    3.648089227500  4.091617869100  3.019874845100
H    4.970784229600  2.766900109400  4.625188349900
H    5.313730407700  0.353616518600  4.240839259200
H    4.407833775900 -0.727778933900  2.242472063000
H   -2.325726695200  0.490091781300  0.601545144400
H   -1.114498300800 -2.423712764300 -1.164896248800
H   -2.218762939400 -4.600521453900 -1.225411948600
H   -4.090512432800 -5.086989003500  0.314008484500
H   -3.488285252100  0.076502570900  2.213818748000
H   -5.359192972700 -0.436056039300  3.665681009000
H   -6.424516016500 -2.662269095200  3.618728444900
H   -5.598686883000 -4.380312555200  2.053615985800
H   -0.060045519300 -1.164085155000  1.750478656300
H   -1.209120554400 -0.106759353400  2.561049861900
H    0.058375355700  0.587801751500  1.542274457200
H   -0.720080511100  2.441233519500 -0.343276321400
H   -1.502930745600  4.652698746000  0.390167883700
H   -3.808687290400  5.376994269500 -0.130523038000
H   -5.956384453800  4.947788356700 -1.137234390400
H   -7.481031361100  3.485867802900 -2.409443478800
H   -6.704624542400  1.270599223000 -3.170825211500
H   -4.451669756500  0.509045912200 -2.684437752000
