82
-125.29399323
C   -3.036862942000 -3.279375830600 -1.767941776900
C   -3.070849174700 -1.824236087700 -1.291431482700
N   -1.929350994900 -1.484708706800 -0.422648794100
P   -0.488773845500 -1.464419821600 -1.347680163600
O    0.489994287900 -2.092488546300 -0.173271030700
C    1.839824023700 -2.020361223500 -0.441890866600
C    2.515937058100 -0.832665281600 -0.261047446100
C    2.498080028600 -3.188597231200 -0.861173778200
C    3.837989957200 -3.166220579400 -1.115111786000
C    4.561319022100 -1.957604165200 -1.030005495700
C    3.894166560700 -0.770340820200 -0.624554923700
C    4.617493940400  0.441987372400 -0.651981688100
C    5.939627346000  0.467240882500 -1.000662341600
C    6.610984939800 -0.715922600200 -1.342062606400
C    5.930654172900 -1.900666786900 -1.365272447400
O   -0.002091662400  0.122105519700 -1.317753809200
C    0.643762450800  0.805551512500 -0.322519007200
C    0.114244207300  2.067649683300  0.008523028700
C    0.703255597800  2.838404073400  0.965164767100
C    1.813137942200  0.355615509500  0.259927010700
C    2.351369375400  1.084924848500  1.360574199300
C    1.799917309600  2.345998111100  1.703293377400
C    2.354494742600  3.073477491400  2.775780528200
C    3.386975010700  2.563100786000  3.511540599400
C    3.900271089100  1.294119961600  3.207031434500
C    3.398542085400  0.575245624900  2.157530498000
C   -1.918736011100 -2.035557691100  0.943001634300
C   -1.087351872800 -1.201006440500  1.900195639900
C   -0.117923737600 -1.834952112800  2.638977025200
C    0.603642555800 -1.173066400300  3.639500156500
C    0.316298628200  0.126098115900  3.943616262400
C   -0.682579141000  0.816603795000  3.229815628100
C   -1.368972376400  0.165685580800  2.167319846500
C   -2.317279648600  0.916265037200  1.439742762500
C   -2.632200225400  2.199109626400  1.790434655800
C   -1.995006434100  2.816764049800  2.875605109700
C   -1.024537023600  2.144446161000  3.562194801600
C   -3.307120073000 -2.195282024100  1.577675707100
C   -3.088049065300 -0.816856439700 -2.424566929100
C   -2.421708296700 -1.076581559900 -3.598060489700
C   -2.317965517300 -0.123924549500 -4.620024904800
C   -2.875908686800  1.110785399000 -4.464317155200
C   -3.754026503000  0.435373233000 -2.276679286600
C   -3.614061341200  1.413857799800 -3.302265312900
C   -4.228683846700  2.675977332300 -3.155192001100
C   -4.986488783600  2.969932920600 -2.057966251900
C   -5.176150712300  1.993807565700 -1.070329307800
C   -4.578575184500  0.768119470700 -1.177658602800
H   -3.801421360600 -3.446705054300 -2.523208093900
H   -3.221100775000 -3.950113280100 -0.931260359700
H   -2.060349817800 -3.523461904800 -2.181941743200
H   -3.983480787500 -1.696396916400 -0.708166972000
H    1.915595136500 -4.092313030100 -0.963389640900
H    4.354943751600 -4.066195026300 -1.414003993900
H    4.109405789800  1.362044660000 -0.407421468200
H    6.473651194100  1.406097542600 -1.019720027200
H    7.658720807200 -0.679637899900 -1.602130368700
H    6.427596504500 -2.815787385200 -1.654386275600
H   -0.752372330400  2.405465701600 -0.538655870600
H    0.316721301900  3.821002211000  1.190564401700
H    1.932257268800  4.039715204700  3.012973854100
H    3.803131766600  3.123418582600  4.336345067400
H    4.695542259900  0.882922354300  3.811923590900
H    3.792253146000 -0.406350891100  1.940358782800
H   -1.466369219600 -3.038703408800  0.918556642100
H    0.101167384800 -2.876557507500  2.446972529600
H    1.371914871800 -1.708016440600  4.179253378100
H    0.844484358800  0.641178138800  4.733124273700
H   -2.777566324800  0.473147280400  0.573524469600
H   -3.367542608600  2.747777713000  1.219281127400
H   -2.261219115700  3.828159074600  3.148393356400
H   -0.499029735400  2.617277284000  4.380147120500
H   -3.902873579800 -2.948390017600  1.068017811200
H   -3.848324746200 -1.253929297000  1.601507612100
H   -3.164475998400 -2.523140538000  2.606115896500
H   -1.960832010700 -2.037356689900 -3.759457488200
H   -1.775180919900 -0.374635084800 -5.519612674900
H   -2.775166021700  1.867246199600 -5.229669487600
H   -4.093228333200  3.405991322300 -3.941093819300
H   -5.454509908700  3.938082161600 -1.953077028500
H   -5.806696714000  2.212207549100 -0.220002094900
H   -4.774353167600  0.039141365900 -0.407172554400
