82
-125.29538973
C   -2.199913011700 -3.520983650800 -1.633501733500
C   -2.644647585400 -2.393759708400 -0.695684302600
N   -1.529868788200 -1.548968310600 -0.258053882500
P   -0.083220655100 -1.683853852000 -1.114071107700
O    0.904176988900 -2.131841337000  0.164790626600
C    2.254994985900 -2.088196182300 -0.095082268100
C    2.922202449300 -0.881016790200 -0.067892933900
C    2.925281413100 -3.295761839900 -0.355012146200
C    4.266469118200 -3.293720755400 -0.601155825400
C    4.981349877700 -2.078420487900 -0.666465215700
C    4.303086550700 -0.854172032100 -0.422580170500
C    5.017706365300  0.350873231700 -0.596626585200
C    6.342895920900  0.341852888900 -0.934461246700
C    7.024754701600 -0.869924747700 -1.117937608500
C    6.352960226000 -2.053629856500 -0.995404265600
O    0.428079550300 -0.116795961500 -1.291605681800
C    1.031450002800  0.701461270300 -0.371982916200
C    0.450869679300  1.971643822600 -0.194142144200
C    0.992767687400  2.864388274000  0.680677964100
C    2.198812669900  0.356883621000  0.282217218300
C    2.696994030500  1.229816765200  1.293979956300
C    2.095332299700  2.501236845500  1.481444919100
C    2.607245244300  3.368539484700  2.467839119800
C    3.647169035000  2.986280658800  3.267741110200
C    4.209891109100  1.710174162000  3.119493530600
C    3.748843040100  0.854413942200  2.157485138300
C   -1.504898646100 -0.977028107700  1.093670001700
C   -1.943791521000  0.472054986500  1.182304824200
C   -2.861239220400  0.986713352700  0.306150361700
C   -3.318599341500  2.308269513000  0.401091892700
C   -2.857976390000  3.120037744000  1.395432426200
C   -1.907241969600  2.641459239200  2.321650936800
C   -1.429407892900  1.304984179200  2.219584526700
C   -0.458299907500  0.888112090900  3.157564943100
C   -0.002635456100  1.725970595900  4.137320826600
C   -0.490753614200  3.034918741700  4.241406758400
C   -1.421177332900  3.479994709900  3.346865456400
C   -2.284666920300 -1.781205544800  2.141569469800
C   -3.830090551600 -1.679624074200 -1.327512090600
C   -5.067582355800 -1.912712535700 -0.776483178200
C   -6.242140636400 -1.381473405900 -1.325544882800
C   -6.180438797900 -0.611096266100 -2.449943091200
C   -3.740965059900 -0.867260284500 -2.494865850500
C   -4.937226545400 -0.335536051500 -3.056229175400
C   -4.863118193300  0.468702135800 -4.213605002700
C   -3.662261996800  0.756337469600 -4.797291622500
C   -2.479644084100  0.253300930500 -4.236117024200
C   -2.519672410300 -0.534332044100 -3.119583414800
H   -1.368586575700 -4.066171147400 -1.189423821900
H   -1.898956178500 -3.144877451100 -2.606598426800
H   -3.032869516400 -4.207761695900 -1.775906245700
H   -3.035419534200 -2.891174716300  0.197178723600
H    2.350081944600 -4.209578224600 -0.344368893900
H    4.792266263000 -4.220191093700 -0.779236840000
H    4.501480211400  1.290579048300 -0.473368168900
H    6.871223076800  1.274744761400 -1.067129084500
H    8.074475412500 -0.858826573300 -1.372213892100
H    6.858981614100 -2.994043553600 -1.161308381200
H   -0.423108306200  2.211196671600 -0.780178383200
H    0.560281255500  3.846621097200  0.797219971600
H    2.145931841200  4.338326029700  2.586466470600
H    4.031439934500  3.654114334500  4.024875848400
H    5.011127139800  1.402414480500  3.775728678900
H    4.181481444300 -0.130218088200  2.061067892800
H   -0.452391349400 -1.010658609300  1.387126253600
H   -3.243699376400  0.365354306800 -0.484226407200
H   -4.041562777400  2.665897771100 -0.318346215000
H   -3.208872573100  4.138205333500  1.489144291500
H   -0.048270769200 -0.108756721400  3.106867608900
H    0.743606159200  1.379566781300  4.837640313900
H   -0.122156513100  3.682380218200  5.023618235000
H   -1.802426072900  4.490161837800  3.406731619900
H   -1.980777502800 -2.826479846800  2.134425760100
H   -3.357048395000 -1.703891157200  1.976311749000
H   -2.070351538300 -1.369194718600  3.124835058200
H   -5.150029808600 -2.530357881600  0.107588250200
H   -7.189898196700 -1.593519590300 -0.852482643700
H   -7.077258921800 -0.200028567200 -2.891083161400
H   -5.782965160200  0.858445430800 -4.627057622000
H   -3.614588604000  1.374399754200 -5.682259618800
H   -1.528610350300  0.494795666800 -4.688329611600
H   -1.593439738300 -0.886425367700 -2.693160738100
