82
-125.29499719
C   -0.778270470800  2.020795844700  0.358791222600
C   -1.954989924200  1.125067724100  0.765055459200
N   -1.780947145300 -0.250828645200  0.323069732300
P   -0.495242274000 -1.343395397000  0.509084555300
O    0.544646769500 -0.350679009600  1.327006736400
C    1.836478989500 -0.833118089700  1.411561980500
C    2.699199865600 -0.668218781200  0.348641906200
C    2.247217228400 -1.455356802800  2.601688542600
C    3.522782325600 -1.925273945600  2.721932732000
C    4.421188913600 -1.849307603600  1.636533506700
C    4.003570292000 -1.233264844700  0.426330602400
C    4.886997691900 -1.250150231000 -0.674823594800
C    6.134037949100 -1.800628130300 -0.567416049800
C    6.563705988900 -2.363072906200  0.643956763700
C    5.720681554900 -2.392890988500  1.719009781200
O    0.280039223300 -1.345455658300 -0.972904880200
C    1.054417438000 -0.328340373300 -1.463500803600
C    0.638101077200  0.277828580400 -2.664098923100
C    1.366524004100  1.288087511500 -3.219072587300
C    2.229677264100  0.058602900200 -0.846838573800
C    2.948527273200  1.174210783900 -1.363113120300
C    2.518950435600  1.782680850600 -2.572305382000
C    3.243640597100  2.876057237200 -3.090777512500
C    4.330613647800  3.374991112500 -2.429552940300
C    4.726755112700  2.807868855500 -1.209245626500
C    4.054281840600  1.736969684200 -0.688696325000
C   -3.020356382600 -0.992200138300  0.049978666300
C   -2.744265814500 -1.966781933500 -1.077840583300
C   -2.541036724400 -3.302626346100 -0.835540859700
C   -2.274375530800 -4.208953756300 -1.871014983800
C   -2.217665953800 -3.778699832800 -3.164051229700
C   -2.424128943400 -2.417619677100 -3.469304965000
C   -2.684638379000 -1.492337530200 -2.420172575000
C   -2.868167854800 -0.137324210600 -2.776603924100
C   -2.815630891000  0.274179286800 -4.080696403700
C   -2.568033814300 -0.645483501100 -5.109551296400
C   -2.372491077900 -1.962567796300 -4.804319316600
C   -3.612435413700 -1.649595768800  1.297825231800
C   -2.251846334900  1.302149344800  2.244878827700
C   -1.809306872000  0.385356242400  3.161409472300
C   -2.042297588700  0.534282749900  4.534664792400
C   -2.731891484600  1.617413302800  4.995938905000
C   -2.983506494100  2.438081226600  2.698494949300
C   -3.219059668400  2.586973098800  4.094801763400
C   -3.940410517600  3.705032198400  4.565483239200
C   -4.421965145400  4.648500673500  3.703797022500
C   -4.202199311600  4.504521465200  2.326876243900
C   -3.504882869100  3.433208407700  1.840504027900
H   -0.488350190900  1.806875212600 -0.668140184800
H    0.077194080400  1.860029672900  1.006581118300
H   -1.069173684600  3.066153550800  0.434485083500
H   -2.834153064100  1.480383292300  0.208861916400
H    1.534078836800 -1.538708567900  3.408163783500
H    3.851459671100 -2.386831729500  3.641450897500
H    4.560879588600 -0.830769961000 -1.614433545100
H    6.795888385600 -1.808280110200 -1.421164924500
H    7.556304819700 -2.783283735700  0.714187522800
H    6.031295563200 -2.844898509700  2.650226008300
H   -0.265912490500 -0.089176996600 -3.123926558400
H    1.052638364700  1.738954978700 -4.149377515400
H    2.912952281300  3.318185632500 -4.019995117200
H    4.880355613400  4.213346747200 -2.831880117300
H    5.568285426200  3.226910280800 -0.676820454000
H    4.360360888600  1.318190957900  0.258070908500
H   -3.767534615100 -0.271439955300 -0.305151642700
H   -2.588142548200 -3.685442678600  0.171017671300
H   -2.115306667600 -5.249977374500 -1.630209626400
H   -2.013725919200 -4.468084270500 -3.971089889000
H   -3.037235904700  0.600273272400 -2.008822620500
H   -2.957889081400  1.317818255500 -4.323179571300
H   -2.528444077100 -0.305102253100 -6.134150090600
H   -2.172910763200 -2.683473325000 -5.584843880600
H   -2.868388639300 -2.262926008700  1.800278018200
H   -4.465691058800 -2.266282543400  1.024753803000
H   -3.944215967800 -0.881373823200  1.992733616800
H   -1.270634346300 -0.484807059700  2.820476317400
H   -1.671467793300 -0.215513727700  5.218697538800
H   -2.918049644900  1.748972138100  6.052425721300
H   -4.104920366700  3.797979258900  5.629987795600
H   -4.973058611700  5.501655709400  4.071897151000
H   -4.589776757000  5.249520608200  1.646593450000
H   -3.357749279300  3.357194071500  0.774423180300
