82
-125.29445190
C   -1.023118733800  2.917534354200  2.092997371600
C   -1.533515349600  2.039254642100  0.942805864900
N   -1.145953185900  0.637530529600  1.131757864000
P   -0.415393737700 -0.161474536000 -0.196606820800
O    0.669667506300 -0.996524709600  0.744492530800
C    1.693350283100 -1.571761542100  0.024103984900
C    2.781394422800 -0.798218909600 -0.321138244400
C    1.611654705800 -2.926662602500 -0.335010477400
C    2.626278210000 -3.505235491600 -1.041189154100
C    3.733308784800 -2.742096768900 -1.469891409600
C    3.807525321900 -1.364791393600 -1.127806896200
C    4.875156427200 -0.600795787100 -1.647548577200
C    5.843665423200 -1.179910597600 -2.419720549200
C    5.796046282100 -2.550699349400 -2.714771291100
C    4.757818908000 -3.311350776000 -2.255560504500
O    0.614787375500  1.003208185800 -0.784070136900
C    1.756055438800  1.448526072500 -0.148955707900
C    1.840004683500  2.825227665300  0.131652643000
C    2.942906086800  3.343781070300  0.744487006100
C    2.818465174500  0.608767929100  0.124667973000
C    3.932009187900  1.117314281500  0.852644893700
C    3.997272885000  2.502759714700  1.155813715300
C    5.109316295700  3.003745237100  1.864788642300
C    6.105156753600  2.168862971400  2.287418797800
C    6.020671204300  0.792428359500  2.029012354300
C    4.963378714000  0.279043581500  1.330134831300
C   -1.964800533100 -0.213286720900  2.005482296800
C   -1.983679786700 -1.643080104500  1.494018265100
C   -1.256054582100 -2.629785716800  2.114808626400
C   -1.256915573000 -3.953936597300  1.655542458600
C   -1.984106786500 -4.303064277700  0.554493726800
C   -2.757134535600 -3.334295607900 -0.116586624400
C   -2.777152937100 -1.994157778200  0.361825209400
C   -3.603641952000 -1.073915844500 -0.316946386100
C   -4.334383865400 -1.437286080600 -1.413278120500
C   -4.286487153600 -2.752014639600 -1.897113903400
C   -3.517968944200 -3.679632033900 -1.253881759100
C   -1.458667133700 -0.122611900400  3.449621726700
C   -3.003459864200  2.265590525100  0.644536088500
C   -3.901154106000  2.497009670800  1.658963014100
C   -5.258274650800  2.745803736800  1.408915721600
C   -5.723124551500  2.780038650000  0.127149351700
C   -3.476702299600  2.252947373400 -0.702699334200
C   -4.849918650000  2.534426513800 -0.952944207500
C   -5.329115217700  2.548099403900 -2.280168098500
C   -4.501312762900  2.273163837400 -3.330905128300
C   -3.156564938000  1.959212625800 -3.089233791400
C   -2.659563845400  1.950214836600 -1.815439465700
H    0.038810954400  2.731604811500  2.235881849600
H   -1.529726953000  2.725472042400  3.031700363500
H   -1.167424282300  3.964945334000  1.834410233800
H   -0.977392977000  2.368827008700  0.062674925900
H    0.735023589000 -3.479985041600 -0.034539050600
H    2.579580880800 -4.551306828500 -1.306441553500
H    4.914589530500  0.457072419600 -1.436612947900
H    6.652001672100 -0.579812310000 -2.811537135100
H    6.575436706500 -2.993694115000 -3.317341017700
H    4.697045417300 -4.363191105000 -2.496233143300
H    1.019802186100  3.460771227200 -0.166076177300
H    3.008019199100  4.403506498000  0.943397394700
H    5.150662938400  4.062881020700  2.076016410500
H    6.952892663900  2.558223599100  2.832020310100
H    6.797716724300  0.135196178200  2.391456681200
H    4.901552371200 -0.783348903400  1.148978740100
H   -3.000819131700  0.154358784200  1.996352327700
H   -0.641503649900 -2.399805034300  2.969150388100
H   -0.663821762500 -4.690350171000  2.179622128400
H   -1.978932426200 -5.317956462600  0.182365678600
H   -3.668317576700 -0.059284851400  0.035000705000
H   -4.952885301000 -0.704500956600 -1.910692276400
H   -4.863645215700 -3.023625452100 -2.768939782900
H   -3.480074912300 -4.701586321000 -1.604689385400
H   -1.955228332000 -0.868004434800  4.066838053300
H   -1.675091560300  0.855874465100  3.865938443400
H   -0.382834051300 -0.272774135000  3.481562616300
H   -3.572055034900  2.499526582600  2.686431074400
H   -5.923728586300  2.919105973000  2.242184702400
H   -6.763075696200  2.987445534000 -0.080770057200
H   -6.373356710200  2.774103098300 -2.445684055100
H   -4.875445683500  2.283043005100 -4.344346389300
H   -2.508445323000  1.716771910500 -3.918759277800
H   -1.625870074100  1.675606136900 -1.670831529200
