82
-125.29572727
C   -0.129670804100  1.550432799700  1.037914877800
C   -1.171556785800  0.732924714700  0.263252552600
N   -0.997174220300 -0.721102280000  0.401604511500
P    0.412984192600 -1.523501509500 -0.062468832200
O    1.375375303200 -0.929205449800  1.159741107900
C    2.689229708800 -1.332106351200  1.056233524400
C    3.536415545100 -0.710583454300  0.161654688900
C    3.132782409400 -2.382993991000  1.877548403100
C    4.420783496300 -2.822952746400  1.793484521400
C    5.300975350400 -2.282507774300  0.831347824900
C    4.852900482900 -1.230674056500 -0.011396036800
C    5.716783148600 -0.778170622500 -1.032174112400
C    6.974016020000 -1.297629092800 -1.172899710200
C    7.434761664000 -2.296552909900 -0.302884419400
C    6.610020174700 -2.783480067200  0.672001032600
O    1.047016812800 -0.646471605000 -1.339730515300
C    1.895335946700  0.424636325800 -1.329273629500
C    1.533594105500  1.494694871800 -2.174376249800
C    2.304969728200  2.614368569100 -2.249640885800
C    3.072433371800  0.461892701400 -0.604352841800
C    3.826483966000  1.674148268900 -0.588328555800
C    3.447995022300  2.750370537200 -1.433105266300
C    4.209949329300  3.936836278200 -1.427995973400
C    5.284625640100  4.077314558000 -0.595390875300
C    5.626763300300  3.038086627200  0.281638840600
C    4.917601776400  1.868555865200  0.286516829300
C   -2.230714872100 -1.500360526700  0.255728409900
C   -2.930802232600 -1.246017125700 -1.064572776100
C   -2.178439011600 -1.244544265500 -2.210786518800
C   -2.743981502400 -0.996261461700 -3.467518448400
C   -4.082606005500 -0.749318171000 -3.572243082300
C   -4.904105802200 -0.762830916500 -2.425734284700
C   -4.333296911400 -1.023903805500 -1.147700936100
C   -5.204102028000 -1.053820825900 -0.035545828900
C   -6.544395086100 -0.823422926100 -0.172943173500
C   -7.097865029200 -0.551040678300 -1.431896919400
C   -6.291077602500 -0.524740398000 -2.533054559600
C   -1.983828001100 -2.997892532500  0.427005943700
C   -2.544390340900  1.217651248300  0.681128636000
C   -3.284402238800  1.922312915400 -0.234846210600
C   -4.525258264800  2.485365947500  0.090436692300
C   -5.027933717500  2.346282316400  1.350958920700
C   -3.055658162400  1.044824008800  1.998236087000
C   -4.311778373600  1.624724132100  2.328211054400
C   -4.829830891100  1.459926585100  3.631113971600
C   -4.150226119200  0.743863999000  4.574887439700
C   -2.922271852600  0.149875771500  4.247504482200
C   -2.390943677600  0.294237653200  2.995973390400
H   -0.407032538300  2.602451414900  0.984720015300
H    0.859901160000  1.441958979700  0.606448670700
H   -0.084597081200  1.254790716200  2.080592100000
H   -1.057516096700  0.993107277400 -0.802383057600
H    2.427608805700 -2.816102740300  2.571076387800
H    4.773329908700 -3.613874661000  2.438967470600
H    5.369129442400 -0.019683529200 -1.716962449600
H    7.619063694000 -0.941341318600 -1.962832210600
H    8.435081600700 -2.686784665400 -0.420286616000
H    6.942594858800 -3.572256924300  1.331662086400
H    0.632465034000  1.389173963000 -2.760527884500
H    2.033524728000  3.422753726300 -2.912565190300
H    3.916576228900  4.739046796600 -2.090220307700
H    5.863177883400  4.989439495700 -0.595095293200
H    6.455294294900  3.167948286500  0.962601156900
H    5.182692717300  1.084439527300  0.979183436800
H   -2.880532298000 -1.189555357800  1.075767002100
H   -1.114697292300 -1.432230785600 -2.144500777400
H   -2.111661540100 -0.998984450000 -4.343933554900
H   -4.534338643400 -0.546781045500 -4.533099905800
H   -4.815596309900 -1.265245612000  0.948304200100
H   -7.186405554300 -0.850560277700  0.695663454200
H   -8.158687139900 -0.367665990300 -1.522020966400
H   -6.703214968700 -0.323522848400 -3.512141182300
H   -1.505384753800 -3.423332100900 -0.451471110400
H   -2.937465680700 -3.500462044500  0.576721008500
H   -1.350872469200 -3.171675559800  1.295328375500
H   -2.904613843000  2.052496875300 -1.239032057800
H   -5.073152127400  3.027867054300 -0.665983551400
H   -5.980901809500  2.779866604800  1.618341635000
H   -5.784022752100  1.911149686700  3.864641976400
H   -4.554338467100  0.622439261400  5.569540209700
H   -2.397674264800 -0.430443156700  4.993096244200
H   -1.458958210700 -0.192381142200  2.755562906400
