82
-125.29459518
C   -0.083619331900  1.488796496700  1.088283464200
C   -1.229910153900  0.602948597700  0.598299212900
N   -0.925777130800 -0.837047544200  0.618210576900
P    0.519552059700 -1.581877167000  0.196475952900
O    1.466478501900 -0.894268784000  1.377777689600
C    2.781430165500 -1.304138517400  1.306859808600
C    3.632079272400 -0.751587599300  0.371555431300
C    3.219681532000 -2.293497395400  2.204024773600
C    4.506628644000 -2.741618224600  2.157105440300
C    5.390411398200 -2.276308865600  1.159576407300
C    4.947043122500 -1.289069397800  0.239832547000
C    5.813570060000 -0.918800600800 -0.811334520600
C    7.069499659600 -1.451040743800 -0.910153366800
C    7.526318679200 -2.381750827200  0.034266927300
C    6.698299466200 -2.791407665600  1.041373399000
O    1.128498236900 -0.751232533000 -1.131658351700
C    2.000726830700  0.294993246600 -1.197524082100
C    1.656457103300  1.308023249700 -2.119039601400
C    2.447696098600  2.404497108100 -2.278740803800
C    3.179004696200  0.366932513200 -0.476356890600
C    3.950609738000  1.566462400400 -0.547755583300
C    3.592709555200  2.581869465100 -1.472840315800
C    4.374191431700  3.752638791200 -1.555061022500
C    5.447726875400  3.939370098900 -0.730136336400
C    5.768171259000  2.965454317600  0.226391741600
C    5.040272639400  1.810992716300  0.316377469200
C   -2.125402744200 -1.665892061700  0.446240356600
C   -2.815752576400 -1.402562048200 -0.878453695300
C   -2.052144817400 -1.420810039800 -2.017831870100
C   -2.598779599400 -1.157040287700 -3.279410593800
C   -3.928814612600 -0.870095386200 -3.395762828000
C   -4.760131704200 -0.857215942900 -2.256883223200
C   -4.209819002100 -1.138580674300 -0.973970089300
C   -5.092229808600 -1.140949188800  0.129787113000
C   -6.421070985800 -0.859646745700 -0.018751483100
C   -6.952573643900 -0.564146249600 -1.281816486200
C   -6.136539785800 -0.568774364900 -2.375814528000
C   -1.834913604100 -3.157425568800  0.591135860500
C   -2.422124824600  0.898660768200  1.488708837000
C   -2.337278860000  0.525122524100  2.809734135200
C   -3.373817548400  0.773524496000  3.715750706500
C   -4.509890790100  1.403015052100  3.292393041500
C   -3.592106751200  1.557068615300  1.022146240500
C   -4.646867859500  1.802984854200  1.947927034800
C   -5.826737522300  2.439637466600  1.506423255900
C   -5.976583642900  2.823446164800  0.205582731500
C   -4.940817271600  2.589686599300 -0.709857306000
C   -3.784948208700  1.979330639800 -0.312901844600
H    0.767953909700  1.455362933200  0.416783325800
H    0.241141584500  1.187189484100  2.079704384800
H   -0.438444069200  2.517930490800  1.133126376100
H   -1.452061815100  0.887615467800 -0.438194013100
H    2.510830416000 -2.672909683200  2.924775248600
H    4.855311012500 -3.483392485900  2.860425632900
H    5.469155025900 -0.214275906700 -1.552976744700
H    7.716410661400 -1.157991512600 -1.724168863000
H    8.525857915700 -2.782165074100 -0.050999615200
H    7.027241174600 -3.529076748500  1.759404272600
H    0.750025730100  1.176181795900 -2.691182745800
H    2.189708958800  3.165560974400 -3.000493004500
H    4.096301165500  4.506436638400 -2.278103383300
H    6.041332874900  4.839335335300 -0.796670992200
H    6.594769870100  3.134401923500  0.901133907200
H    5.289043818100  1.079043148600  1.069533877600
H   -2.793794514100 -1.388697181800  1.264879844800
H   -0.993511454800 -1.630261824600 -1.938519010000
H   -1.959004814400 -1.177697066000 -4.150136955500
H   -4.365377427600 -0.653179372800 -4.360487468400
H   -4.720810125600 -1.370525039200  1.116215124000
H   -7.071868141600 -0.865108773400  0.843471909300
H   -8.004628610900 -0.339572764500 -1.380058881800
H   -6.532361617200 -0.352431942100 -3.358376317200
H   -1.317597798800 -3.548038264200 -0.281206916400
H   -2.776814933700 -3.691826129800  0.700626679700
H   -1.222959063900 -3.331777219400  1.474036124300
H   -1.452491123700  0.006787721200  3.150635144800
H   -3.266274757600  0.461619196900  4.744586926900
H   -5.321345118200  1.600327486800  3.978387631800
H   -6.614526651800  2.614705877900  2.225791318500
H   -6.884536864400  3.305473857200 -0.126210832000
H   -5.061911560100  2.895454254700 -1.738963338300
H   -3.011177194300  1.815480384500 -1.046733504900
