82
-125.29284958
C   -1.539577339000  2.135175030800 -2.279243090900
C   -1.821107026900  1.106782008500 -1.174309882900
N   -1.453855371000 -0.261172782200 -1.557816502400
P   -0.082604155100 -1.181021681000 -1.246132825400
O    0.276522204700 -0.613716481500  0.257030578700
C    1.470658207200 -1.059046011900  0.782628172400
C    2.661549773100 -0.491900475600  0.380428541300
C    1.429602882500 -2.075283065600  1.752022555700
C    2.586485344500 -2.544170356100  2.301578937300
C    3.837158784300 -2.067962358600  1.852586644600
C    3.881936139900 -1.046362713800  0.866601889100
C    5.142691383900 -0.657951418500  0.363579130500
C    6.295939974400 -1.209608566500  0.849317295900
C    6.251512908800 -2.177877777400  1.863060533600
C    5.045784747600 -2.602514000800  2.346386298900
O    1.191385232800 -0.489922813700 -2.097770443100
C    1.963136306400  0.580642016300 -1.747447376200
C    2.084599279400  1.602937622700 -2.710920350100
C    2.832631915300  2.713536610200 -2.457213773300
C    2.656186643400  0.649629180400 -0.553356318600
C    3.358945067300  1.848528777400 -0.235832832000
C    3.455447354900  2.883933211100 -1.202568356900
C    4.161647907100  4.063448168500 -0.887440175600
C    4.727131458600  4.234713396500  0.344864797300
C    4.591370750800  3.234792926500  1.319192820700
C    3.925278617100  2.073869764900  1.038044789900
C   -2.333217331900 -0.992771818500 -2.483980631300
C   -3.788129521000 -0.935569601000 -2.074445371000
C   -4.679381965100 -0.101644905800 -2.702859513100
C   -6.037907184600 -0.075991240100 -2.356109308900
C   -6.512905155200 -0.902888262400 -1.380304761100
C   -5.638873640100 -1.774255269800 -0.697415456000
C   -4.255476187800 -1.786766956100 -1.029881744500
C   -3.408110545800 -2.644566339200 -0.291348547900
C   -3.901908771000 -3.456430976400  0.691308011500
C   -5.271012860300 -3.458880209000  0.996306919500
C   -6.117704527800 -2.629149149600  0.318465651500
C   -2.077846231000 -0.653953944800 -3.956486024700
C   -1.190147351300  1.519422885300  0.143332160300
C   -0.106486222400  2.362091280400  0.171463939900
C    0.495455138900  2.755589304400  1.374454981400
C    0.017120806100  2.296931326600  2.565855198800
C   -1.726242048600  1.051089969400  1.378821306000
C   -1.100582124000  1.437892498800  2.596492220400
C   -1.603634292000  0.953493026700  3.822436679100
C   -2.686153445100  0.121265261600  3.861909249600
C   -3.314610311200 -0.253121937500  2.666637478600
C   -2.848206432700  0.200443544700  1.463666173700
H   -0.541526427800  2.007575252600 -2.688503630000
H   -1.636404138900  3.140558707200 -1.875377120900
H   -2.261416293500  2.033415011700 -3.083508931000
H   -2.910093226000  1.097443771800 -1.025180825100
H    0.461892573900 -2.452848919000  2.047175398700
H    2.560925735100 -3.308456168300  3.064298486700
H    5.189322953300  0.075791380500 -0.426668832700
H    7.250954286800 -0.903216484500  0.447987526000
H    7.172491258100 -2.594126862400  2.244180738300
H    4.996290248600 -3.367276391500  3.108365976900
H    1.582547303600  1.465869193800 -3.657928062200
H    2.935873933800  3.486924766700 -3.204612362700
H    4.235999911800  4.835657225400 -1.640166506300
H    5.264810368700  5.141462440100  0.580780400100
H    5.011767717900  3.390261616700  2.302272113900
H    3.809857720800  1.322018301100  1.803685856900
H   -2.020107256300 -2.041524884300 -2.392858568300
H   -4.346879944200  0.553279715300 -3.492393208200
H   -6.701388734800  0.598713671500 -2.877275988200
H   -7.560185218800 -0.901971756900 -1.114054188700
H   -2.344721505600 -2.641214707800 -0.482811704800
H   -3.233448345300 -4.100210557600  1.244430273600
H   -5.644492096600 -4.110892891400  1.772695295100
H   -7.173163864800 -2.609071321300  0.551370501300
H   -2.324613773400  0.368305172200 -4.216858811800
H   -2.661537764800 -1.324174357800 -4.584226235100
H   -1.021082007300 -0.812680123400 -4.163252480400
H    0.329432571100  2.729569479600 -0.743602817500
H    1.350369076400  3.415222821400  1.339984876200
H    0.484951337900  2.580712127300  3.498248222700
H   -1.109093630100  1.256746454800  4.735149823700
H   -3.063161030100 -0.247858668800  4.805032541800
H   -4.173432777000 -0.908219461700  2.695646562600
H   -3.350380825700 -0.112157180900  0.564280307600
