82
-125.30158619
C   -0.410322311700  0.729112409200  2.542830196600
C   -0.958741039400  0.657913633000  1.113532820400
N   -0.898966237200 -0.709118521000  0.594874998200
P    0.411468625400 -1.374995610800 -0.205093318500
O    1.523172835400 -1.340757284100  1.064379107900
C    2.794264227800 -1.705007083000  0.691071140300
C    3.607468836100 -0.783304413500  0.065365877000
C    3.234808786400 -3.013514504100  0.953682443100
C    4.487577392000 -3.400191229000  0.577810562400
C    5.328040663900 -2.519440645700 -0.136878620600
C    4.880312099700 -1.200953061300 -0.418204851900
C    5.697356753800 -0.371995731700 -1.217084979100
C    6.914126071500 -0.805688278400 -1.665897962900
C    7.378051746600 -2.089161699900 -1.341888121800
C    6.595804544400 -2.929336579600 -0.600242053600
O    1.029665810100 -0.114990332800 -1.086897485100
C    1.906891558200  0.868844878900 -0.686393350100
C    1.529898270600  2.194856998600 -0.985360213800
C    2.328878557700  3.242517762500 -0.637728263300
C    3.130112740800  0.601816033600 -0.102341468000
C    3.922954776500  1.693388303600  0.363557123600
C    3.523484829500  3.025173237600  0.080074848400
C    4.320542529300  4.098778122000  0.528136463500
C    5.452782969400  3.873627234300  1.259709085500
C    5.822222278600  2.560888997500  1.586705620200
C    5.078495355800  1.498763482300  1.151166373700
C   -2.003980392500 -1.586030932300  0.966818166200
C   -3.129430766000 -1.527722785800 -0.048820089000
C   -2.805663762600 -1.624501089000 -1.377612846200
C   -3.775980385300 -1.541362047400 -2.382308822000
C   -5.084955732900 -1.347857161900 -2.047996630100
C   -5.473112734900 -1.271864674900 -0.695038787800
C   -4.492112213800 -1.386130546900  0.329889291500
C   -4.940423512000 -1.362112616000  1.669269062000
C   -6.263267148600 -1.208639280800  1.977588691900
C   -7.220325346900 -1.064574927800  0.963587096600
C   -6.828919537100 -1.099822164100 -0.343915603400
C   -1.548208978500 -3.033031012500  1.148544296300
C   -2.360854208600  1.218802638200  0.957890100800
C   -3.166601617800  1.431336679300  2.048519396700
C   -4.466295637300  1.940938997500  1.921784138900
C   -4.968474504000  2.245903064900  0.691618588800
C   -2.866401070100  1.529360465500 -0.337865177600
C   -4.182587518200  2.051985451800 -0.462157565600
C   -4.686548040000  2.373316313100 -1.740149003000
C   -3.929521485100  2.194385855000 -2.862113188000
C   -2.636114485300  1.666996006100 -2.747580611700
C   -2.124842405700  1.337564310800 -1.523311931000
H    0.635352283000  0.431273240900  2.534250202900
H   -0.941838883100  0.055291843800  3.210782297500
H   -0.479442058700  1.745610406300  2.923361719900
H   -0.288993230700  1.264456589100  0.495121787900
H    2.559954144400 -3.687869672600  1.459192249800
H    4.840817489400 -4.397513445800  0.795317860000
H    5.344935400000  0.612940347700 -1.483466371300
H    7.524459572200 -0.158942035500 -2.279327281300
H    8.346758978200 -2.411179639800 -1.694989773800
H    6.930630878700 -3.929728958400 -0.365403849100
H    0.600230032300  2.357558931000 -1.509929682800
H    2.039859974400  4.253085597700 -0.886079535300
H    4.008644050900  5.105581976400  0.289218827500
H    6.058318159500  4.699968133500  1.602057431500
H    6.699981531400  2.390900529400  2.193070794800
H    5.366469313800  0.494956115200  1.424107568200
H   -2.365451997700 -1.223827219500  1.932476326200
H   -1.767586919800 -1.745338943100 -1.658298237900
H   -3.476327070000 -1.618263216600 -3.417197725800
H   -5.844123970100 -1.259444095600 -2.812106316300
H   -4.232817589400 -1.480960349500  2.474786558900
H   -6.579280353800 -1.197969790900  3.010980832300
H   -8.260786496900 -0.935008977600  1.224323595700
H   -7.556013913800 -1.003741817800 -1.138272996400
H   -2.353954554300 -3.617589007700  1.588846341700
H   -0.682219237200 -3.067328460100  1.806496145200
H   -1.285103541700 -3.476101104400  0.191184466900
H   -2.811676617200  1.210276513700  3.042626431700
H   -5.062043028800  2.087538739100  2.810977439700
H   -5.968838145800  2.639443661600  0.581874463400
H   -5.691165277900  2.766555006600 -1.810528167600
H   -4.320755646600  2.447013858700 -3.837078876800
H   -2.043805784000  1.511902576800 -3.638348683500
H   -1.143277502400  0.898668790900 -1.470076136600
