82
-125.29850564
C   -1.430080639400 -1.651909600800  3.218924075700
C   -1.196353878100 -0.672393709000  2.063490705100
N   -0.943744731300 -1.350763918100  0.782508345300
P    0.533799394800 -2.219849613900  0.650416971100
O    1.410830590600 -1.115002698700  1.515969068700
C    2.780449636700 -1.240782356500  1.381946354900
C    3.401466123900 -0.696534047400  0.279079454500
C    3.506443165700 -1.886664315400  2.394923381200
C    4.863053633800 -1.996484262300  2.294574842900
C    5.540474908900 -1.517747945800  1.153109277900
C    4.804855407300 -0.876927043800  0.119940694600
C    5.491880264400 -0.488385385300 -1.050593004700
C    6.840673807000 -0.678593082700 -1.170207473100
C    7.573690207500 -1.266793158500 -0.128684888500
C    6.933795062800 -1.683723309800  1.004421432400
O    1.065449395300 -1.849516163700 -0.883085375700
C    1.502516947200 -0.617361807100 -1.306263172300
C    0.849823840100 -0.049212559100 -2.416897346200
C    1.218725078500  1.177642209700 -2.884553842600
C    2.591472160600  0.010927987200 -0.732815746700
C    2.917919273900  1.335456814300 -1.140869044400
C    2.222972509300  1.921972796400 -2.231358724600
C    2.552369231900  3.233227134400 -2.634144185900
C    3.506450966700  3.952106881300 -1.969924028400
C    4.165381822100  3.389210650300 -0.866530899400
C    3.881360666500  2.113755310800 -0.462928088900
C   -2.134806668500 -2.005756113200  0.230834300600
C   -2.993168701900 -1.018087701600 -0.539303540400
C   -2.387583061800 -0.021472463000 -1.257764945900
C   -3.124607290400  0.915638136000 -1.990880051300
C   -4.487263431400  0.853182940800 -2.000580238500
C   -5.159044262200 -0.165116552500 -1.293314744400
C   -4.411296833400 -1.130551259300 -0.562330665200
C   -5.131332164500 -2.151045893500  0.098399141300
C   -6.497356973000 -2.202527599400  0.060585837000
C   -7.228240970900 -1.236005181000 -0.644140231000
C   -6.567818145600 -0.242508820300 -1.308738025100
C   -1.794912281300 -3.174938760600 -0.695134283900
C   -2.280473052300  0.369190653600  1.892853971200
C   -3.551632244300  0.169111717600  2.366652580200
C   -4.558238968500  1.131748902400  2.205692559000
C   -4.289343396300  2.306393629600  1.568047724100
C   -1.973923185700  1.590468178200  1.225264975900
C   -2.996784483700  2.564316231100  1.065915195800
C   -2.707014979700  3.774218603200  0.400835903200
C   -1.459302723300  4.023402663600 -0.095975615000
C   -0.447212361600  3.065106955200  0.053400467800
C   -0.698254268700  1.883271340900  0.693569608100
H   -2.272536780600 -2.317649917100  3.050693347900
H   -1.600580342500 -1.099810112200  4.140181436800
H   -0.536726027900 -2.264280923500  3.336040683300
H   -0.277874957700 -0.136260313100  2.311247924300
H    2.965862438800 -2.278989389300  3.243237868500
H    5.432051089300 -2.476114850200  3.077247629200
H    4.936331958400 -0.047033662100 -1.863812573300
H    7.349352688800 -0.379051512200 -2.074882673400
H    8.640144437900 -1.400027018000 -0.236267382100
H    7.483305968800 -2.159756715000  1.803952588800
H    0.071536523700 -0.622488330700 -2.897775082700
H    0.727511053400  1.602920091300 -3.747348130500
H    2.021714416000  3.662592825500 -3.472157521200
H    3.749625520400  4.957928307800 -2.279932211400
H    4.898939657400  3.973970197700 -0.330827610400
H    4.384378546300  1.694620900900  0.395592822300
H   -2.727744051800 -2.401789502800  1.061677398500
H   -1.313317933200  0.061683464700 -1.232826645000
H   -2.603232691900  1.690634335300 -2.533089215500
H   -5.072382681900  1.577243101400 -2.549841261600
H   -4.601024443900 -2.918755186400  0.640528972200
H   -7.022695852500 -2.994709869500  0.575105176100
H   -8.307326196700 -1.287906291500 -0.660733054700
H   -7.116472465800  0.504888630300 -1.864978120400
H   -1.129895846600 -2.850333793800 -1.490550726200
H   -2.711194086400 -3.555262426400 -1.143473731700
H   -1.314937868100 -3.981315249000 -0.143338616800
H   -3.808375767600 -0.745993768500  2.876431886100
H   -5.547397286400  0.927139225200  2.589240469200
H   -5.058783008800  3.053581755900  1.434827004200
H   -3.499106602200  4.501773107600  0.290002235400
H   -1.244307601700  4.951851891000 -0.605346127100
H    0.537070896300  3.262483070100 -0.346027849000
H    0.097591189400  1.160294362300  0.775776987900
