82
-125.29437782
C   -3.702416817600 -1.965519223200 -2.615895897400
C   -3.316761404600 -0.740113906400 -1.779917921100
N   -2.257570049600 -1.019487072900 -0.789322876900
P   -0.768338695200 -1.161014939700 -1.661617875300
O    0.056400831600 -1.919888527300 -0.455461786300
C    1.425726511300 -1.957461554400 -0.603706286400
C    2.179552099800 -0.845693203000 -0.293390569100
C    2.020709197600 -3.156400079600 -1.029693820300
C    3.376199800800 -3.239187009400 -1.159475231500
C    4.187325027500 -2.106670533400 -0.935001227800
C    3.586449664500 -0.887081386700 -0.521500364400
C    4.408728278500  0.255020479100 -0.405641279800
C    5.755958547200  0.179841920200 -0.627912444400
C    6.354976922200 -1.038877811900 -0.979112331700
C    5.582777404100 -2.154849189300 -1.138247397600
O   -0.114032023200  0.353709989700 -1.554609684400
C    0.459006294000  0.939316090100 -0.453818332400
C   -0.017490461100  2.216210423600 -0.104464980400
C    0.526340821700  2.896063980700  0.943995828700
C    1.523634549800  0.372725593300  0.219887252800
C    1.996148790500  1.005711028700  1.405869448900
C    1.509399924500  2.291809690700  1.755353604900
C    2.009277482800  2.927683543800  2.910177530600
C    2.919363230000  2.304239780600  3.716684205900
C    3.357490246700  1.009236811100  3.404506971900
C    2.911432136800  0.377452338900  2.276895638900
C   -2.619131934700 -2.038706546100  0.211785446700
C   -1.643295326600 -2.152597802300  1.366198741500
C   -1.201037095000 -3.409664044300  1.702801857100
C   -0.372611518000 -3.632800275400  2.809034567700
C   -0.010440512800 -2.589950159800  3.611951185200
C   -0.466818503400 -1.286015919100  3.331971468400
C   -1.278257061700 -1.051274605500  2.186690146600
C   -1.698574468800  0.272472773300  1.937295422600
C   -1.399659017300  1.286961182500  2.802597726400
C   -0.625563017400  1.045781608700  3.945904476900
C   -0.150785648400 -0.210536094200  4.188843901600
C   -4.005661242300 -1.800366891200  0.835178155200
C   -2.862323280800  0.432423764700 -2.625708393900
C   -2.301960994000  0.236672808900 -3.864594313600
C   -1.850048860200  1.305902365700 -4.649778248400
C   -1.957888370100  2.586713818400 -4.194045519400
C   -3.003831057000  1.763092286200 -2.136391251900
C   -2.538484542900  2.845545870600 -2.935615507700
C   -2.659935968200  4.168610133800 -2.458516526800
C   -3.223177271800  4.431833797600 -1.242169680600
C   -3.694407826400  3.372383395700 -0.454234534100
C   -3.586622964000  2.079818912000 -0.888698839800
H   -2.813273573600 -2.459519794900 -3.004200999900
H   -4.339597972800 -1.665086634700 -3.444332523400
H   -4.248902239100 -2.683173158000 -2.008156019300
H   -4.210884516200 -0.426842518000 -1.234008872800
H    1.377548951500 -3.998362625300 -1.237755721100
H    3.842267603400 -4.164554739700 -1.464587895700
H    3.958678279200  1.202360198700 -0.151741704600
H    6.366969936500  1.066208170900 -0.538379577600
H    7.422354215300 -1.082946146700 -1.138702111400
H    6.026742794000 -3.094116384600 -1.436019902500
H   -0.807479195400  2.637864956400 -0.705036237300
H    0.184730000200  3.892119013200  1.185278621400
H    1.643441932300  3.915463763500  3.152822867000
H    3.293586926700  2.794743900500  4.603611628700
H    4.050707572600  0.508780804100  4.065102305700
H    3.245242556000 -0.624446161700  2.051666519800
H   -2.650609450000 -3.027239449000 -0.272325528200
H   -1.486401036200 -4.256158811600  1.092424600900
H   -0.033159995600 -4.636678533800  3.021797797200
H    0.618045270100 -2.747521689400  4.477345772800
H   -2.250462474500  0.484096074800  1.037039355200
H   -1.752659018100  2.288035919600  2.603891735700
H   -0.396881500900  1.858658537100  4.619520433700
H    0.467473077800 -0.407057576800  5.053780712900
H   -4.091594863700 -0.793406847300  1.232567869800
H   -4.128194449200 -2.498326240600  1.661538449400
H   -4.809970152200 -1.979552421900  0.126395340700
H   -2.201283293600 -0.758882192000 -4.265688720700
H   -1.410545193800  1.099921351200 -5.614874634500
H   -1.603320331100  3.419194287100 -4.785251541300
H   -2.294622074100  4.973481211400 -3.081101619100
H   -3.311527912200  5.447223763200 -0.883826632900
H   -4.146243913200  3.583067592800  0.504569890400
H   -3.959197060300  1.291030466600 -0.255549042800
