82
-125.29523066
C   -0.341218629600  1.745411867400  0.624706183500
C   -1.493704990800  0.830139671900  0.207956242400
N   -1.181686107900 -0.604592755800  0.209267551200
P    0.270620732600 -1.370402222200 -0.137849924500
O    1.178901032300 -0.648429798000  1.055152274200
C    2.490143040100 -1.075706528300  1.054183823800
C    3.384765523100 -0.573124882800  0.132044183600
C    2.877159701000 -2.031901278100  2.008789638000
C    4.158134580200 -2.498467497900  2.032397546900
C    5.086808172800 -2.088435621000  1.051615785900
C    4.694959453700 -1.135099896200  0.074472014900
C    5.606737729200 -0.823497973700 -0.957254736900
C    6.856724636900 -1.377741277700 -0.984522958500
C    7.262312597300 -2.272930306100  0.015985363900
C    6.389916572200 -2.626723968400  1.006618138600
O    0.939967662000 -0.591791737900 -1.466751215300
C    1.832016327000  0.437661284600 -1.537726582600
C    1.539863130000  1.419506098700 -2.509644898900
C    2.358118576000  2.493707306300 -2.683880121600
C    2.983684686900  0.517767469100 -0.775853885800
C    3.780894869600  1.699370725900 -0.866618300700
C    3.477630846700  2.681818159900 -1.845235612100
C    4.286798486600  3.831947347400 -1.948289727500
C    5.334815607600  4.031763910700 -1.094119381700
C    5.599450282900  3.093719159500 -0.086126714700
C    4.843632778100  1.959288795100  0.026081256200
C   -2.384950900300 -1.422649560500  0.029720647500
C   -3.023251097900 -1.207145596600 -1.329265044900
C   -2.217730229700 -1.268558056500 -2.437690230300
C   -2.717421393100 -1.058357210600 -3.728531635500
C   -4.043468289200 -0.785695502400 -3.906846969900
C   -4.917661517500 -0.733221347000 -2.801368757800
C   -4.413981637900 -0.955373315900 -1.487450029500
C   -5.336929500700 -0.919398007800 -0.417701707500
C   -6.663334982300 -0.664618256100 -0.628735837900
C   -7.149936460200 -0.430478754800 -1.922863189300
C   -6.291903586500 -0.467316052500 -2.984282261000
C   -2.121713055500 -2.910340749700  0.246369705000
C   -2.678380494100  1.155299718700  1.099787603000
C   -3.721538709500  1.863225606700  0.557358341700
C   -4.818307292300  2.270488618900  1.328950096300
C   -4.869801008300  1.964006218500  2.657756305300
C   -2.713995065200  0.811880049000  2.480998984700
C   -3.827375488800  1.230202127300  3.262073209900
C   -3.873741573400  0.899702697100  4.633594016700
C   -2.872206036600  0.178287701100  5.218608704200
C   -1.781938456300 -0.251416985300  4.448012471200
C   -1.704645774800  0.055064376800  3.117694958800
H    0.495837180700  1.670109444500 -0.061536192800
H    0.004165610400  1.519232833500  1.628360426400
H   -0.700384871600  2.773805298000  0.606095596400
H   -1.778275040400  1.111962288000 -0.820905821700
H    2.135150457100 -2.371365776800  2.715938736700
H    4.467932449600 -3.213829789200  2.779867788500
H    5.302235863300 -0.147056709900 -1.741285297100
H    7.538719610800 -1.129930670600 -1.784808979500
H    8.257894467800 -2.690845587100 -0.013105039600
H    6.679241314600 -3.337331981000  1.767710719800
H    0.651703856700  1.281488067100 -3.108290793200
H    2.141312875000  3.229554883700 -3.444282795700
H    4.051071474500  4.559554186900 -2.711988289700
H    5.950424718700  4.915384777400 -1.177550793900
H    6.405181409200  3.274574359200  0.610430273100
H    5.049597683600  1.255975657300  0.818376679600
H   -3.076613570300 -1.100155111600  0.812199085400
H   -1.162735840500 -1.471578596800 -2.310872789800
H   -2.045314898400 -1.110730801300 -4.573031638800
H   -4.444832422600 -0.612393218900 -4.895347655700
H   -5.000060034700 -1.099660102200  0.591122184600
H   -7.346286846700 -0.642250940000  0.208220521700
H   -8.200559365200 -0.227106111200 -2.071012937400
H   -6.652317095700 -0.296745028400 -3.989212081900
H   -1.575261997100 -3.341424205900 -0.588360831500
H   -3.074224819200 -3.428686762200  0.339005081200
H   -1.548828367000 -3.056136373900  1.159973311900
H   -3.703107951100  2.117923220400 -0.493586610700
H   -5.616744656000  2.825491156200  0.858597181700
H   -5.707356046100  2.274637988800  3.266096853200
H   -4.724551614000  1.229922495100  5.213268666600
H   -2.915449908700 -0.069447540300  6.269536807700
H   -0.998226782600 -0.831175409700  4.914734283300
H   -0.868408653400 -0.298492547300  2.537996454400
