82
-125.29598675
C   -0.546513792400  2.246961818800  1.307121014000
C   -1.471026315000  1.528431965900  0.318744725500
N   -0.745311155300  0.666315077400 -0.611074413500
P    0.104600910700 -0.757151888000 -0.169974738600
O    1.014056049700 -0.038264641400  1.004871671600
C    2.127481699400 -0.763400977000  1.376674525800
C    3.265536023500 -0.691792417300  0.602010384500
C    2.082020351500 -1.534725525600  2.548966903900
C    3.180947109300 -2.243314305100  2.940704431700
C    4.348282274200 -2.256266311600  2.148282443100
C    4.390739827400 -1.489466555600  0.952532608100
C    5.535390575700 -1.588909842600  0.131843731100
C    6.599232379500 -2.364863243600  0.500085677000
C    6.575612272500 -3.082736543200  1.705362659300
C    5.469692550700 -3.034301256700  2.506439977100
O    1.236057558600 -0.843054574500 -1.389176988600
C    2.279895042100  0.038903011900 -1.547762939400
C    2.352533098400  0.740912519200 -2.764617787500
C    3.358563125500  1.633781502000 -2.991012765200
C    3.266239631800  0.179407363500 -0.590797847500
C    4.266989759400  1.175799332200 -0.772606350300
C    4.315307701700  1.904483203100 -1.990536169900
C    5.315878998000  2.882487661000 -2.170574866700
C    6.216226967300  3.155508259500 -1.179415800700
C    6.142915568400  2.467904024600  0.041308705100
C    5.194570103700  1.503156119800  0.240589315100
C   -1.409238437900  0.516771907300 -1.919658389300
C   -2.872583366900  0.144822460700 -1.778991270800
C   -3.852164575900  1.104413411600 -1.850038427200
C   -5.199627962600  0.813134586500 -1.599908979700
C   -5.572854407600 -0.450844866500 -1.253034263700
C   -4.615938914700 -1.485003869200 -1.207092303900
C   -3.253144593000 -1.202193360200 -1.505313647800
C   -2.356090303300 -2.292173124600 -1.532576610300
C   -2.760786834700 -3.562244558000 -1.225570007600
C   -4.093240693700 -3.822867983100 -0.879308756500
C   -5.001294590200 -2.802931623700 -0.884319535600
C   -1.162126717200  1.762817849900 -2.776650084600
C   -2.606536128100  0.870750317500  1.080586506300
C   -2.457311973800 -0.396364154600  1.577002084000
C   -3.484956895500 -1.056562436100  2.261182301600
C   -4.681570959600 -0.431886779700  2.455805662800
C   -3.825031388700  1.567605429300  1.325199967600
C   -4.875658015800  0.889680664100  2.004172882300
C   -6.100438162200  1.552493240000  2.231726453600
C   -6.290989059700  2.842937304700  1.828342531100
C   -5.250590921200  3.526922001500  1.184770455400
C   -4.055957714500  2.907630801000  0.941521786400
H   -1.085739812000  3.076328123600  1.761326122200
H    0.328188138000  2.630891753400  0.787302609600
H   -0.219383202700  1.578994560800  2.097222307200
H   -1.899630407500  2.299486596900 -0.325192860000
H    1.167109959100 -1.542281789100  3.122966226100
H    3.160270475000 -2.825339949600  3.850332933200
H    5.558738208200 -1.050248828500 -0.803213202100
H    7.465811936300 -2.432001155400 -0.141389410800
H    7.429336298000 -3.682180797100  1.985603327700
H    5.429973205700 -3.601206013800  3.425665622000
H    1.604828709100  0.532914945800 -3.515247696700
H    3.420634578300  2.159929944100 -3.932529634200
H    5.348163729000  3.419624667400 -3.107930317400
H    6.978384011800  3.907405872000 -1.323013608500
H    6.840888698600  2.709214485400  0.829812729100
H    5.138457752800  0.989713901900  1.188612054800
H   -0.889302428100 -0.303699084200 -2.425234061000
H   -3.602258593800  2.124752769800 -2.092528210100
H   -5.929388871000  1.606986979400 -1.661321599300
H   -6.602445376700 -0.682261139500 -1.020876718900
H   -1.326858550900 -2.138902291200 -1.818898565100
H   -2.048802955900 -4.374219345200 -1.256438924500
H   -4.395299019900 -4.829555824800 -0.629400514100
H   -6.039403070500 -2.988859479400 -0.646889726500
H   -1.566073131600  2.666908721800 -2.330545750600
H   -1.611521328700  1.626212225200 -3.757614956800
H   -0.091097206500  1.907809908900 -2.890950003100
H   -1.522805552800 -0.919110976200  1.426781052300
H   -3.319900303300 -2.061916459100  2.620039391900
H   -5.491967533300 -0.932667204900  2.965980248700
H   -6.887352862000  1.014400208300  2.741626734700
H   -7.231411976500  3.343854553400  2.007002576200
H   -5.397729493100  4.553962405200  0.881890491700
H   -3.273939615800  3.471815665200  0.457686315500
