82
-125.29748412
C   -2.985815909300 -1.129282928600 -2.570423783600
C   -3.046522593100 -0.012796816900 -1.526498993000
N   -1.878724425400 -0.024340933600 -0.647205128300
P   -0.421979921800 -0.435923681600 -1.371439148800
O    0.181553000000 -1.359889354400 -0.137549649000
C    1.454171246900 -1.840812841400 -0.333520628000
C    2.544324734800 -1.016832736400 -0.147979370500
C    1.605576707900 -3.189574738500 -0.699599178900
C    2.849453000400 -3.708770963400 -0.905107609000
C    3.991390598900 -2.881971925900 -0.830513369600
C    3.841420762000 -1.515605003500 -0.472620818700
C    4.984176185600 -0.687437671300 -0.510662606800
C    6.214321297400 -1.196065666500 -0.824724250200
C    6.369266370000 -2.558693229200 -1.117602643600
C    5.276973997600 -3.380027700000 -1.129036024300
O    0.596565827300  0.887744538400 -1.217166773100
C    1.470482040300  1.232556978300 -0.228138245100
C    1.475875222800  2.600406437200  0.120447295300
C    2.289530973300  3.068160355100  1.107560100200
C    2.365437588000  0.356219287000  0.356676212500
C    3.131511958400  0.808410070200  1.472798642600
C    3.099324806000  2.177756845600  1.844130540700
C    3.867872187400  2.618349216900  2.941105685200
C    4.615241640600  1.738272729400  3.672600688000
C    4.608130060300  0.375654339700  3.341317469400
C    3.887770568400 -0.077409996300  2.270526787500
C   -2.126467583400  0.505310635100  0.698394882400
C   -1.247623966500 -0.149677435100  1.744712650800
C   -0.280879746200  0.552264728500  2.417024156200
C    0.521242819300 -0.051049619900  3.397189866300
C    0.356163969400 -1.368046302500  3.707114215300
C   -0.632084289800 -2.133610512600  3.052824386500
C   -1.455282569400 -1.523908735400  2.067759557500
C   -2.428931995800 -2.328779221100  1.438038966100
C   -2.577370761700 -3.650941258800  1.755777312500
C   -1.759974704300 -4.247262550600  2.725581514400
C   -0.809171920900 -3.499202015900  3.359872341300
C   -2.082531916200  2.035318749100  0.715562038500
C   -3.261799463900  1.313418642200 -2.233506627800
C   -2.181660026500  1.922193795900 -2.819158711500
C   -2.293805596800  3.145289568500 -3.490358519500
C   -3.508959167200  3.761220056200 -3.582047538800
C   -4.546664103100  1.916629138900 -2.340844364800
C   -4.656209749600  3.164416672300 -3.019888586500
C   -5.917282354700  3.788821625600 -3.130940362400
C   -7.038718750200  3.213179679800 -2.606327538700
C   -6.940960704400  1.979084119000 -1.947983934600
C   -5.733031361600  1.351339039300 -1.819871387300
H   -2.276999240700 -0.886882802600 -3.357383278200
H   -3.968384918200 -1.258626028300 -3.020235151100
H   -2.682058285900 -2.061428526000 -2.097897818700
H   -3.905203304000 -0.215820976300 -0.877533763400
H    0.713401789000 -3.789613370600 -0.798192633100
H    2.973977950500 -4.750829958600 -1.160524148400
H    4.876984171000  0.366211932900 -0.302610559000
H    7.075495031300 -0.544431425700 -0.853643997700
H    7.350134823600 -2.946860005100 -1.349954513900
H    5.377110328700 -4.426077048500 -1.381576167700
H    0.829036798300  3.263978284500 -0.435693431200
H    2.301464179900  4.119623435200  1.355695202400
H    3.841665214700  3.667587505000  3.199896226300
H    5.198775396700  2.081096628600  4.514612247200
H    5.172860895500 -0.320763347500  3.944122427400
H    3.875638960100 -1.131777659000  2.040217324000
H   -3.160972320000  0.225766717500  0.954842805100
H   -0.103985739700  1.592834330600  2.198243376000
H    1.275516917900  0.542087380600  3.893609559700
H    0.978001282800 -1.844518846900  4.452087582400
H   -3.062577620400 -1.903049141700  0.677444031100
H   -3.328364938300 -4.246337729400  1.255533895600
H   -1.887040237300 -5.293650257800  2.963957743700
H   -0.169985615300 -3.943746529900  4.110400006900
H   -1.118596913100  2.401846610000  0.378490552500
H   -2.279840308900  2.404691192700  1.719464557100
H   -2.846207143300  2.425602012000  0.045837785800
H   -1.210321904800  1.452355530000 -2.747763493800
H   -1.413290001600  3.591441751000 -3.929463129700
H   -3.613157024300  4.708795783100 -4.091229361300
H   -5.976198792400  4.736753302600 -3.647312522500
H   -8.000369278400  3.696939125900 -2.696525332100
H   -7.831878819800  1.522605691700 -1.541032308700
H   -5.700038765600  0.398257052800 -1.315034234800
