82
-125.29946984
C   -0.306020543100  0.821509641800  2.792391704200
C   -0.987289797700  0.716199382000  1.422914953900
N   -1.044801641100 -0.667508852200  0.941795780600
P    0.235878774400 -1.427247326600  0.164745294400
O    1.434896739700 -1.245478668600  1.336325762900
C    2.673983693400 -1.660965908500  0.906323425700
C    3.431556043900 -0.825227687000  0.112954920100
C    3.136883486400 -2.932025622100  1.286516923600
C    4.356225582200 -3.369731540700  0.859817334400
C    5.133825240000 -2.586223394600 -0.020070942600
C    4.661973980700 -1.307010885000 -0.418664528700
C    5.409537958400 -0.584397143200 -1.373589282700
C    6.586562595700 -1.077470272900 -1.865020563300
C    7.078105688000 -2.317002406600 -1.429600401900
C    6.360785878000 -3.057531553300 -0.532484358200
O    0.770678176600 -0.275920533000 -0.899447910300
C    1.673425738000  0.741838567000 -0.686346405800
C    1.268652280800  2.027713666900 -1.101213684200
C    2.090681209900  3.102630253200 -0.941269847000
C    2.940615700000  0.534862687500 -0.176233831400
C    3.766629413700  1.666738920800  0.095110463000
C    3.341537378900  2.960127639600 -0.305030064000
C    4.170176625600  4.072344893300 -0.049915448600
C    5.359630502700  3.924500766400  0.606725160300
C    5.758266769600  2.655196725300  1.050185797100
C    4.983791275900  1.555457151700  0.801928654400
C   -2.105593496900 -1.496975263500  1.510118506600
C   -3.468009973600 -1.300479890100  0.863870773000
C   -4.524427998700 -1.024812314700  1.698106748500
C   -5.824762139200 -0.833014494200  1.218075977300
C   -6.074592626500 -0.920049093700 -0.120236086100
C   -5.034247646300 -1.230981307500 -1.018150574600
C   -3.712547268600 -1.437197072700 -0.530238026700
C   -2.715723144100 -1.771402795700 -1.472366088200
C   -3.000051209600 -1.896610048600 -2.803308978600
C   -4.301240399600 -1.681688740500 -3.278180046000
C   -5.293008511200 -1.352208444500 -2.399829788200
C   -1.747949908500 -2.983614577200  1.534136773800
C   -2.363028541000  1.356472090400  1.379426789400
C   -3.017487828700  1.714854151200  2.531555457700
C   -4.286141888000  2.310975160300  2.508164729500
C   -4.910879862200  2.553354980600  1.320823631000
C   -2.994773412200  1.607377573600  0.126743191300
C   -4.281848046200  2.210871833900  0.106866177000
C   -4.914248827700  2.461454647500 -1.128710207800
C   -4.307073043400  2.141067733900 -2.308967762300
C   -3.040508707700  1.542750314000 -2.296062393300
C   -2.408338009000  1.276906029600 -1.113427239500
H    0.718325184000  0.469167668900  2.711233394000
H   -0.808997256700  0.213413101900  3.540781107000
H   -0.289012005700  1.858129975400  3.121059382300
H   -0.350171028100  1.263003101300  0.718159838900
H    2.507279758900 -3.536360059500  1.922230132600
H    4.728055514300 -4.336635806800  1.165364658600
H    5.034372865500  0.364750810900 -1.725197738400
H    7.143630520900 -0.512654718100 -2.598276298600
H    8.015608760400 -2.685744793600 -1.819309235300
H    6.715851299900 -4.025438598700 -0.208406387700
H    0.297317964000  2.135175026800 -1.559903664300
H    1.778916797100  4.080577242600 -1.277199195300
H    3.836832627800  5.047403057200 -0.375727496900
H    5.989253782800  4.780340930100  0.801245903800
H    6.683663457600  2.549554358800  1.597448918800
H    5.296161432300  0.587507227900  1.163258678800
H   -2.216907055600 -1.185868168100  2.558610124000
H   -4.353036571000 -0.938155313900  2.762284980500
H   -6.618506139400 -0.608598756500  1.915531498400
H   -7.069763860800 -0.761640888100 -0.510718523200
H   -1.700813350500 -1.921424056200 -1.141073146100
H   -2.214720469800 -2.157323642600 -3.498316316700
H   -4.509592360200 -1.777015021100 -4.334180550300
H   -6.302122280100 -1.181901749000 -2.748634185800
H   -0.779641152500 -3.122192851900  2.012040149600
H   -1.717060389300 -3.405924826400  0.534252772700
H   -2.501857458000 -3.520050968400  2.108056870900
H   -2.567294412400  1.540867321000  3.495599622800
H   -4.760498719500  2.572387318900  3.443322188200
H   -5.889986473900  3.009862354200  1.290476744100
H   -5.895246073000  2.915912536000 -1.120011314200
H   -4.796216949600  2.338231998600 -3.251892760000
H   -2.567125803200  1.279213294700 -3.230980006600
H   -1.453377266500  0.780650187300 -1.132244792000
