82
-125.29528352
C   -0.304915288700  1.707247197100  0.683083723500
C   -1.452050795300  0.808337780000  0.216943387000
N   -1.157803735300 -0.630407218700  0.229126493200
P    0.289579780400 -1.401905030300 -0.130569505800
O    1.203190820300 -0.694924912800  1.067129483000
C    2.516691729500 -1.114713261900  1.052875391400
C    3.403949554300 -0.592681792200  0.134315193500
C    2.914936852300 -2.082116117000  1.991505308100
C    4.199423081200 -2.539507589300  2.002907963500
C    5.121347449400 -2.107642877000  1.025126675700
C    4.718229541700 -1.143236552200  0.063567131600
C    5.623729409300 -0.808645053900 -0.966517789800
C    6.878246838500 -1.351757431800 -1.006158041700
C    7.294781123100 -2.258201024700 -0.020370272400
C    6.428786916500 -2.634182272500  0.967725110900
O    0.956068291200 -0.613574317800 -1.454654484400
C    1.837489668100  0.425614714000 -1.517077256100
C    1.532980798100  1.416501521600 -2.475643085400
C    2.339919197500  2.501155893200 -2.637659709300
C    2.990754562600  0.506842843400 -0.757714069000
C    3.775946827000  1.697234684000 -0.834939173500
C    3.459452331200  2.689758826500 -1.799137432300
C    4.255872045300  3.849922823900 -1.887961521400
C    5.303793868900  4.049109118000 -1.033536422400
C    5.581727707500  3.099670825000 -0.039864972200
C    4.838628974500  1.955589377800  0.058230239300
C   -2.366168091400 -1.440009183400  0.042738788500
C   -3.007667975700 -1.202645756600 -1.310957080400
C   -2.207307804600 -1.265272389800 -2.423144603100
C   -2.708740386600 -1.036144156300 -3.710032183900
C   -4.031312243000 -0.742153582500 -3.880407279800
C   -4.900096302000 -0.686003943000 -2.770899721600
C   -4.394889424400 -0.927955668600 -1.461058171800
C   -5.313094971200 -0.886831911500 -0.387385448500
C   -6.635962496500 -0.608917076600 -0.590796621200
C   -7.123688608800 -0.354977684700 -1.880758616700
C   -6.270560723900 -0.396247628500 -2.945885614300
C   -2.108632852500 -2.931774865000  0.237430764500
C   -2.665570325800  1.150140451600  1.061788037000
C   -3.674649974800  1.876243099100  0.480718411300
C   -4.794248350400  2.299887161600  1.209467792900
C   -4.903938945000  1.990132821300  2.533905601800
C   -2.760536260800  0.805680093100  2.439941117500
C   -3.898166831400  1.238310100100  3.176937413400
C   -4.005291537800  0.903592694300  4.544043060600
C   -3.038492370000  0.166435446900  5.166630076100
C   -1.923320221200 -0.275427237800  4.439709370400
C   -1.788004464400  0.033333834000  3.114575798100
H    0.003161918900  1.466580764400  1.695495450700
H   -0.652678778100  2.739531413400  0.663076757400
H    0.554944020700  1.630563457100  0.025935127500
H   -1.690985081400  1.096428287300 -0.821690045700
H    2.178467299600 -2.437238204400  2.696780130300
H    4.517501757300 -3.263664617600  2.738350189300
H    5.310855208300 -0.123122154300 -1.739290960800
H    7.555476579100 -1.086135227200 -1.804783263200
H    8.293798551400 -2.667071026600 -0.058969917100
H    6.726765751600 -3.353571558300  1.717139640300
H    0.644581614300  1.277355533200 -3.073622581300
H    2.113805015000  3.244649467600 -3.387842526100
H    4.010247846600  4.585646173600 -2.640681938800
H    5.909305297800  4.940647546300 -1.105815763900
H    6.387476102600  3.279405299600  0.656954484700
H    5.054420785500  1.243061927300  0.839621778100
H   -3.053745446200 -1.126992276800  0.832237993700
H   -1.154757509200 -1.484478126400 -2.302282881200
H   -2.040810410600 -1.091023569400 -4.557703711400
H   -4.433931214400 -0.554019132700 -4.865696447900
H   -4.975353029000 -1.080875059000  0.618582937900
H   -7.315209808200 -0.582820653700  0.249030254400
H   -8.171383837900 -0.133017927100 -2.022815904900
H   -6.631939115300 -0.210571535300 -3.947793468800
H   -1.532985128900 -3.093071987400  1.146690461800
H   -1.567313452800 -3.353860763500 -0.605187844600
H   -3.063179599900 -3.447040790100  0.326442567800
H   -3.610290635300  2.133286722000 -0.567823925800
H   -5.564046271700  2.869349163700  0.709634237000
H   -5.760450647000  2.311779823900  3.109191390200
H   -4.874700398700  1.243294428700  5.089631471700
H   -3.128269471000 -0.084536861700  6.213819566500
H   -1.167227044600 -0.867085543000  4.936048972800
H   -0.934179330500 -0.331114441000  2.567614462800
