82
-125.29642221
C   -0.698190658100  1.869889299100  1.931585466600
C   -1.529391000600  1.376411744400  0.745296163500
N   -0.721984754200  0.723633414400 -0.285318300700
P    0.164952189600 -0.720437510800 -0.013637284300
O    1.148808327000 -0.059478400300  1.140769693600
C    2.275168631900 -0.804648470800  1.414908545400
C    3.366632742100 -0.703722955400  0.578693282300
C    2.292930396900 -1.628903072600  2.551671938400
C    3.407935424000 -2.358540403300  2.846840569900
C    4.526736382500 -2.341429403000  1.987317334400
C    4.504131232300 -1.523184185300  0.825605232600
C    5.596935609300 -1.594461299800 -0.065686289000
C    6.675004506100 -2.390595677500  0.205446439800
C    6.718209568100 -3.158399786800  1.378900574700
C    5.661661949000 -3.139238129800  2.245182137200
O    1.211546535400 -0.719321535400 -1.304813153600
C    2.270197118800  0.143518704600 -1.477509527900
C    2.300872411200  0.886210927500 -2.672646734900
C    3.315968244700  1.763670176600 -2.918436354200
C    3.309458177400  0.221862552300 -0.570831307000
C    4.319499143700  1.207499876200 -0.765234544400
C    4.323987064100  1.980818271600 -1.956039957100
C    5.333502226900  2.947171693800 -2.148337804400
C    6.284767895800  3.167279257000 -1.192171025600
C    6.255980754400  2.435843728700  0.004632406900
C    5.300174075800  1.480425433600  0.213418001100
C   -1.291511210100  0.848104627000 -1.637649957500
C   -2.784698619400  0.579567024200 -1.675882867100
C   -3.687551694700  1.606470530600 -1.800365774200
C   -5.071452176600  1.389842341400 -1.752747726400
C   -5.562488243800  0.135097040400 -1.547974222800
C   -4.682330305300 -0.961109561800 -1.444332749500
C   -3.278865705500 -0.751645588700 -1.546716488400
C   -2.447671383500 -1.891607125900 -1.526184719100
C   -2.959126948200 -3.148103531400 -1.354047360100
C   -4.338363223600 -3.341344926600 -1.199812132200
C   -5.179749645900 -2.267343058900 -1.257174065200
C   -0.890854902300  2.209254728000 -2.218622469000
C   -2.698553897000  0.555743663700  1.256864687100
C   -2.495425475000 -0.750618883200  1.617647858100
C   -3.542026314300 -1.580935505200  2.033602880600
C   -4.813031867100 -1.089436046800  2.097838916100
C   -3.998431718300  1.116976824500  1.406724760100
C   -5.066816118300  0.265978633800  1.805479867400
C   -6.369853677800  0.794106773800  1.925429074500
C   -6.619538497100  2.116973134500  1.698668756000
C   -5.564052740300  2.969872216300  1.348144357900
C   -4.294820174100  2.483002536300  1.202629707000
H   -0.401068335800  1.046136118500  2.572794203000
H   -1.296608716600  2.563866358100  2.519429016900
H    0.195452615600  2.377728607200  1.577159848200
H   -1.923452513900  2.263275458200  0.243887447500
H    1.413236115700 -1.659634669900  3.177440190200
H    3.436665829300 -2.980118106800  3.729701097200
H    5.568999407000 -1.017885995300 -0.977679909300
H    7.501054764100 -2.434966814300 -0.489275042100
H    7.582909670800 -3.772800557600  1.582629716700
H    5.671976547800 -3.744774075100  3.140260677000
H    1.513577658100  0.721939912400 -3.393049603500
H    3.344832104600  2.319703025100 -3.844148508100
H    5.331156779500  3.518661064300 -3.065683335700
H    7.053283823500  3.910964972600 -1.344349660300
H    6.994384905200  2.635727626500  0.767465380900
H    5.279041320600  0.933437662400  1.143930296100
H   -0.796053587700  0.090574430200 -2.254526690700
H   -3.348366482000  2.621296200500 -1.931818968700
H   -5.739030548700  2.232517761100 -1.856539740400
H   -6.625923491100 -0.040272349200 -1.473429329800
H   -1.382091037400 -1.782866922500 -1.662733822100
H   -2.295887447500 -4.000823436500 -1.341820743900
H   -4.726675047500 -4.338791507100 -1.053408137700
H   -6.248797395400 -2.399658519800 -1.166392201900
H   -1.271536212100  3.036515004000 -1.625909410800
H   -1.258708688000  2.303365153800 -3.237732580000
H    0.193748197300  2.284463207700 -2.223529086900
H   -1.498150131300 -1.165017626500  1.564012502500
H   -3.332441137500 -2.609486464700  2.287659033900
H   -5.637800082300 -1.722762481900  2.391646189300
H   -7.168727010700  0.125609764600  2.214879265100
H   -7.619260512400  2.514561442000  1.797332635000
H   -5.759902832500  4.021418250000  1.193368722100
H   -3.505111957200  3.172003663400  0.946485709000
