82
-125.29602857
C   -0.558514671600  2.200674388000  1.386666400400
C   -1.472831154700  1.505504973500  0.372764665900
N   -0.738906233500  0.665467715200 -0.571138605800
P    0.112701319100 -0.763384360000 -0.150068710600
O    1.030792917200 -0.051246134400  1.022244045300
C    2.149605768100 -0.772422489900  1.383489050500
C    3.281099359800 -0.695193248700  0.599797261000
C    2.117575244400 -1.543678896100  2.556365585500
C    3.223471349700 -2.245732687600  2.940051781800
C    4.384534527500 -2.252992124200  2.138389373900
C    4.412949831600 -1.487577303500  0.941346971700
C    5.551078182100 -1.582668099100  0.111127421000
C    6.622399103100 -2.351768284200  0.472025431700
C    6.613159174300 -3.066951690200  1.679069675600
C    5.513409814400 -3.023670140500  2.488894230500
O    1.233647665000 -0.843509634000 -1.378207002500
C    2.279161628300  0.035398341500 -1.543793172200
C    2.347993770100  0.732075118400 -2.764065445500
C    3.354097465000  1.622918814100 -2.998123559400
C    3.270866579700  0.176529884400 -0.592551559200
C    4.270377035200  1.173083871100 -0.781403871000
C    4.313962339100  1.897876619500 -2.001781096400
C    5.313470031800  2.875685203000 -2.188596661000
C    6.216879221700  3.152698126800 -1.201323836100
C    6.147949814700  2.469335012500  0.022026007800
C    5.201091991900  1.504426374500  0.227586859400
C   -1.391587981500  0.551761771800 -1.888481692000
C   -2.863126484400  0.203253622200 -1.772406683700
C   -3.826549760900  1.178088503700 -1.856274084300
C   -5.182984193400  0.905691428500 -1.634692751000
C   -5.582318040700 -0.354570948500 -1.303739729700
C   -4.642089948900 -1.403267039700 -1.244878691600
C   -3.269573867200 -1.139088022200 -1.513733386600
C   -2.387868206300 -2.241559408300 -1.528285575000
C   -2.817320524800 -3.507485014200 -1.238539305900
C   -4.160582519200 -3.750672190100 -0.922629380900
C   -5.053243747900 -2.717358074900 -0.938973607800
C   -1.113035101600  1.812363274900 -2.714329409400
C   -2.614054835900  0.827160008500  1.107392112400
C   -2.459831398800 -0.446081205800  1.586739623700
C   -3.492637457500 -1.128245846600  2.240761949800
C   -4.699368349800 -0.519393882200  2.423098154300
C   -3.842455233400  1.508618819500  1.344869526500
C   -4.898171076600  0.808478657400  1.992670673900
C   -6.132268930700  1.456401249000  2.212656543800
C   -6.326612325300  2.753570354900  1.833453215600
C   -5.281084142000  3.459444468800  1.222652559200
C   -4.077813382300  2.854644996800  0.985812110100
H   -0.239412844900  1.514593964900  2.164503222300
H   -1.102747788500  3.019287816500  1.854278302500
H    0.321405011500  2.596470397200  0.884930414400
H   -1.896533483600  2.291183127900 -0.256618549100
H    1.207402044100 -1.555831468500  3.137745573100
H    3.213412188400 -2.826602928500  3.850602598300
H    5.563571090700 -1.046310075600 -0.825457202500
H    7.483785201800 -2.415474248400 -0.176757698500
H    7.472854923900 -3.660440825400  1.953670736200
H    5.484540693200 -3.588971885400  3.409515679500
H    1.597828268100  0.520898077300 -3.511369054100
H    3.413533436100  2.144376999600 -3.942409252300
H    5.342251342900  3.409670726700 -3.127854942500
H    6.978081538300  3.904584446700 -1.349996162000
H    6.848097438400  2.714048770800  0.807540141300
H    5.148272123500  0.994350821800  1.177618004400
H   -0.881428754100 -0.267219659200 -2.406437362400
H   -3.556817289500  2.195943804900 -2.087655851800
H   -5.899369789400  1.710847342900 -1.705695563500
H   -6.619876380200 -0.571869642600 -1.094623168900
H   -1.350413282600 -2.100620858600 -1.790488354200
H   -2.116641983500 -4.329552677600 -1.259364833500
H   -4.482630504300 -4.754439276600 -0.686280841600
H   -6.098643384700 -2.889485584800 -0.724185600800
H   -1.507536687700  2.712240153700 -2.251431448300
H   -1.551235675400  1.706330456100 -3.704093986800
H   -0.038244417500  1.941774299500 -2.810999135300
H   -1.516657624400 -0.955719290900  1.446013885500
H   -3.323565461700 -2.137679248200  2.585961899400
H   -5.514018893700 -1.037484936200  2.908608377600
H   -6.922926148700  0.901607453400  2.698303053800
H   -7.273857161700  3.243258649900  2.007128132500
H   -5.431225511500  4.491845038800  0.940170876600
H   -3.292153495200  3.434993418200  0.527708410200
