82
-125.29300128
C   -2.447795212800  4.034674990600 -1.059105964100
C   -2.407287301200  2.513037968300 -1.222296782500
N   -1.448115814400  1.847250500900 -0.329708504400
P   -0.096053514900  1.326567618300 -1.175902243100
O    0.104149709100 -0.155175221200 -0.465692286700
C    1.181359501000 -0.865543531300 -0.945601358000
C    2.461833785400 -0.541765055000 -0.549457787600
C    0.930011519800 -1.924066943900 -1.835234643600
C    1.965678790200 -2.639965273200 -2.358502237600
C    3.300478923000 -2.276620897700 -2.075894460900
C    3.557581742000 -1.205205416100 -1.179505159400
C    4.896382880200 -0.797458974600 -0.994407430000
C    5.925303987700 -1.450566415200 -1.615246157000
C    5.672391089700 -2.546016768800 -2.453392069500
C    4.385024791700 -2.942573101900 -2.684198399600
O    1.214790489800  2.120193751800 -0.505285651300
C    2.119943470300  1.728938168000  0.436743701700
C    2.516772989400  2.739742449600  1.339064606200
C    3.401080595300  2.478004933000  2.340961233500
C    2.690278305300  0.470987084100  0.497010758300
C    3.520276971500  0.152577684400  1.614746867700
C    3.888630173700  1.168115295600  2.535131966400
C    4.720390153400  0.848104265000  3.627836343600
C    5.146054609500 -0.434312791800  3.833646088400
C    4.737969474800 -1.451382224700  2.958842680500
C    3.948286093300 -1.166768527500  1.878879989700
C   -1.718304076000  1.815255690800  1.112020257800
C   -1.170329264500  0.548255833600  1.749147405100
C   -0.027051201000  0.579255112400  2.508810826300
C    0.528398548300 -0.581255762900  3.065611777900
C   -0.057023219800 -1.793755991000  2.854213208400
C   -1.248008896200 -1.882078876700  2.104642503200
C   -1.830557898400 -0.702419657300  1.563112441500
C   -3.042972809700 -0.842015170300  0.857013258300
C   -3.626180854700 -2.063740853400  0.664231267000
C   -3.031164956200 -3.225257616700  1.173712038200
C   -1.869584260100 -3.129566637500  1.886207047400
C   -1.212145276900  3.075359628600  1.828190879100
C   -3.775848106000  1.862659800300 -1.191900976600
C   -4.814291857600  2.412694847700 -0.480991459200
C   -6.094903920600  1.839881987900 -0.476472329300
C   -6.344677508800  0.711974977500 -1.201390792000
C   -4.004132780100  0.659501734600 -1.925402738700
C   -5.310783593800  0.095892546800 -1.937368917900
C   -5.554811502400 -1.082236314400 -2.674712327100
C   -4.551815114500 -1.701615095200 -3.364056778100
C   -3.256392571400 -1.166647985100 -3.332915338700
C   -2.990818229200 -0.021842962000 -2.634164300600
H   -3.038022169500  4.462132876800 -1.867029465900
H   -1.432932392000  4.421320633500 -1.123617156600
H   -2.879652791300  4.351946857800 -0.116529994300
H   -1.999704295000  2.350859484400 -2.228267592300
H   -0.099619267000 -2.149055217800 -2.069190080800
H    1.778947615100 -3.471255101000 -3.022333778900
H    5.103999998400  0.053815436500 -0.364158199900
H    6.942494313800 -1.119204162900 -1.465214416100
H    6.497432538900 -3.059000854700 -2.925477904800
H    4.173676477900 -3.767062928200 -3.350182020000
H    2.107523239900  3.729428316800  1.195523775500
H    3.714127801400  3.262146958700  3.014899831200
H    5.002484034900  1.638698609100  4.308868641100
H    5.779901332400 -0.674348226300  4.674788183200
H    5.046386368300 -2.469664704600  3.146698785900
H    3.625028956500 -1.964352017700  1.227622138700
H   -2.811077763300  1.797682652200  1.218764991900
H    0.495566316800  1.505352180400  2.683057761400
H    1.435829096200 -0.499821622000  3.646472878200
H    0.377970942600 -2.698318937700  3.255895863300
H   -3.527807209000  0.030033970100  0.455162214300
H   -4.552230201400 -2.134182864200  0.111980450400
H   -3.498366292500 -4.185413648200  1.007391268700
H   -1.403104922100 -4.013487580000  2.299463414300
H   -0.178239511400  3.277664609000  1.567417854200
H   -1.294242031000  2.943652926000  2.904971286200
H   -1.803848789100  3.941056390500  1.550076526500
H   -4.667430684300  3.314180159700  0.092711700400
H   -6.878795446700  2.309513681800  0.099760504500
H   -7.330867836300  0.270353467100 -1.217954068500
H   -6.556660175000 -1.488928857800 -2.676338731500
H   -4.745032335000 -2.604272583400 -3.925372601800
H   -2.462322637000 -1.668113530000 -3.867284896200
H   -1.977018051300  0.349976742300 -2.609093291000
