82
-125.29850046
C   -1.452461695100 -1.708614022100  3.200151144600
C   -1.206636416600 -0.706635016100  2.066760380700
N   -0.941068692900 -1.359262500100  0.774449755300
P    0.535602765900 -2.235269479000  0.661301260600
O    1.407039482400 -1.118357338800  1.518372122200
C    2.777629143200 -1.232356132800  1.389431410300
C    3.397188764700 -0.695288233300  0.282046724000
C    3.506868613900 -1.856157988200  2.413937281400
C    4.865244688400 -1.949835368300  2.321607020600
C    5.542139069400 -1.477553091700  1.177179339500
C    4.803294092100 -0.861247611800  0.131452113600
C    5.491121890500 -0.480572847900 -1.041253701200
C    6.843165613300 -0.652857255800 -1.150786781700
C    7.578852090300 -1.214718733900 -0.096650298900
C    6.938562585300 -1.625241316700  1.038553001300
O    1.076699672000 -1.885591685900 -0.871600128300
C    1.501609321700 -0.653434463600 -1.308694123600
C    0.844303960700 -0.104649066400 -2.426139752700
C    1.202424654600  1.119872334600 -2.908284636300
C    2.583588991200 -0.008232306500 -0.741079795600
C    2.898964848100  1.313919759000 -1.165506638400
C    2.199934917800  1.880610179700 -2.263901595000
C    2.519456139400  3.188813904700 -2.684161835000
C    3.468518870100  3.923423884100 -2.030096712400
C    4.131103779100  3.380499054000 -0.918901395700
C    3.855847122500  2.108853703000 -0.497576005100
C   -2.128602541800 -2.002589531700  0.201114680900
C   -2.979603031600 -0.998150090400 -0.555554919600
C   -2.365347402800  0.004039987900 -1.258968342800
C   -3.093873508700  0.956834503000 -1.980166594500
C   -4.456912566000  0.904554721000 -1.993482724200
C   -5.137514667200 -0.118610762300 -1.301895496900
C   -4.398472995800 -1.099664662300 -0.582831795500
C   -5.127704494600 -2.123579537300  0.062295504800
C   -6.493986775200 -2.164287168300  0.020991916500
C   -7.216119185800 -1.182873118300 -0.672073991600
C   -6.546781816600 -0.185367024000 -1.321540830700
C   -1.784719868400 -3.153622999200 -0.745606517800
C   -2.287078902100  0.340207388300  1.906149921100
C   -3.560004347100  0.139819028000  2.374891871500
C   -4.561750606900  1.109249827900  2.224181477700
C   -4.286365687400  2.290346638000  1.601395216600
C   -1.973687868100  1.568233470300  1.254345465400
C   -2.991840354800  2.548304420200  1.104270383300
C   -2.695328526300  3.764020774200  0.452909623600
C   -1.445962202800  4.012303210400 -0.040267530300
C   -0.438427000600  3.047840689500  0.100230976700
C   -0.695611930000  1.860896489100  0.728381825900
H   -2.296238089600 -2.367516350000  3.012588390700
H   -1.627297132500 -1.174849485900  4.131338976500
H   -0.562121040500 -2.326773598100  3.310922038200
H   -0.290219776000 -0.176323326300  2.334285777500
H    2.967120978300 -2.243644292200  3.265020763300
H    5.436483059700 -2.411227088900  3.113564423700
H    4.933804831600 -0.059405885200 -1.863922339900
H    7.352543766800 -0.359206663000 -2.057000580200
H    8.647851785400 -1.333059269400 -0.196094534900
H    7.490353212000 -2.081696535900  1.847875647600
H    0.070927359900 -0.690151957600 -2.900226083300
H    0.707673704700  1.530318968100 -3.776216215800
H    1.985944539000  3.602758850000 -3.528074514500
H    3.704927838400  4.926419405500 -2.354176544600
H    4.860506646900  3.977691606400 -0.391290539600
H    4.361302970200  1.705647655000  0.367078371400
H   -2.727705346700 -2.414903210600  1.019497559600
H   -1.290497387900  0.079039006000 -1.231496182900
H   -2.565461190800  1.735422113500 -2.510267817000
H   -5.035614264200  1.640509612900 -2.533657779200
H   -4.604473557600 -2.902604498900  0.595114230400
H   -7.026320069100 -2.959389935300  0.523660396700
H   -8.295516541100 -1.226555249000 -0.691853543100
H   -7.088557126400  0.573631121200 -1.868745508200
H   -1.292977478900 -3.963970282300 -0.209974597900
H   -1.128643097000 -2.811237303500 -1.540689261900
H   -2.701024207700 -3.535109870200 -1.192925976700
H   -3.822049510600 -0.780504677300  2.872442214700
H   -5.552490541600  0.904678856100  2.603674725300
H   -5.052205561000  3.042579906100  1.476016489000
H   -3.483715317700  4.496629371700  0.349155451400
H   -1.226167138200  4.944947405100 -0.539856206300
H    0.547110586500  3.244473451600 -0.296719462300
H    0.096469326800  1.133320124500  0.804861008400
