82
-125.29828431
C   -1.177746630800 -1.414699963000  3.229233073500
C   -1.151127593300 -0.546766580900  1.966322922200
N   -0.964605220700 -1.357573493100  0.756106976900
P    0.536636835000 -2.075649773100  0.403752130400
O    1.420542354600 -1.113958959500  1.412869553600
C    2.784672415900 -1.315288404000  1.280686810000
C    3.465428858100 -0.695741555400  0.255926671000
C    3.438819384400 -2.134777024900  2.213998404800
C    4.783935943600 -2.340830747000  2.115247584900
C    5.516053453600 -1.793787595100  1.039964510800
C    4.851366063700 -0.981445405900  0.082623555800
C    5.583501458900 -0.532465934200 -1.037705492400
C    6.913043236100 -0.822775004900 -1.172152129900
C    7.581122011700 -1.576799464100 -0.196153397000
C    6.892749597700 -2.058975937400  0.881315350500
O    0.997760064600 -1.399106895900 -1.067242122900
C    1.599060327400 -0.193529677200 -1.306752746500
C    1.044403169600  0.595276292600 -2.335249931100
C    1.578706159000  1.808484370400 -2.650758074300
C    2.749964277300  0.215852265900 -0.657231352000
C    3.244323011000  1.532276839900 -0.892426228100
C    2.658848280700  2.331247926400 -1.908917627400
C    3.165034080600  3.625053840900 -2.150803002800
C    4.187792191900  4.129953124500 -1.397888584300
C    4.735662620400  3.361766573500 -0.360159621300
C    4.278015817700  2.096767279000 -0.113558051800
C   -2.166668382200 -2.074491475700  0.324940817800
C   -3.045653941200 -1.175051899200 -0.526077102900
C   -2.442184294000 -0.387902988300 -1.471583436100
C   -3.170375984800  0.490745040000 -2.279968815300
C   -4.524157464400  0.581941939100 -2.133291025800
C   -5.197336247600 -0.232283688800 -1.199924818400
C   -4.460314568900 -1.145700988000 -0.394697879900
C   -5.187902085200 -1.976789348100  0.485927673800
C   -6.548563896100 -1.892762423900  0.587409468700
C   -7.265837031800 -0.969919601700 -0.186831952800
C   -6.600129915400 -0.162403758600 -1.063651714100
C   -1.843796307100 -3.337217636900 -0.472455782500
C   -2.356114093200  0.355847144100  1.808051867100
C   -3.532089312400  0.102581518900  2.467912371200
C   -4.658713474500  0.921504367400  2.310265288500
C   -4.610774270600  2.003029722200  1.481810820400
C   -2.274065563400  1.495562581600  0.957123022400
C   -3.421787811400  2.317893378500  0.792294073200
C   -3.355110682600  3.442611350000 -0.056150662100
C   -2.201126535600  3.761173032500 -0.713265236800
C   -1.063987948000  2.958746160800 -0.548612063300
C   -1.102109868300  1.854914589300  0.257000962500
H   -1.941648509400 -2.187077669100  3.185447863800
H   -1.350362207800 -0.794043729900  4.105267837500
H   -0.211883556900 -1.904385416200  3.333041157500
H   -0.270464642400  0.094779804000  2.053620391800
H    2.852944105400 -2.580792717500  3.003620873200
H    5.299116818100 -2.950830150800  2.842383136100
H    5.077769719600  0.036574510400 -1.802588078300
H    7.455857429200 -0.474090671700 -2.038558843100
H    8.634458831300 -1.785824540000 -0.311989628600
H    7.389165173500 -2.664076143200  1.626439811000
H    0.202469358400  0.199582790500 -2.881987979200
H    1.163031221400  2.393612775600 -3.458369374100
H    2.716937461200  4.214454681100 -2.938446644400
H    4.569365066900  5.122798937500 -1.586196316000
H    5.522868004400  3.778716810800  0.251061099300
H    4.698480417800  1.521900725400  0.697835186000
H   -2.723346191600 -2.370755137500  1.219087544100
H   -1.370485828200 -0.435033403300 -1.568064475000
H   -2.652222188200  1.102799935100 -3.003853242000
H   -5.101441692600  1.270804508000 -2.733698954800
H   -4.668307225500 -2.707581166800  1.086147481400
H   -7.081187382500 -2.542355590200  1.267513354700
H   -8.340282146600 -0.910563864300 -0.089442855500
H   -7.140389142500  0.544871238300 -1.677635684800
H   -1.195655429800 -3.096031550700 -1.313070548400
H   -2.768298863800 -3.764024399400 -0.857657788100
H   -1.349229267700 -4.076652664500  0.154077128600
H   -3.618304385200 -0.745755850800  3.127994597700
H   -5.564502998000  0.678623742900  2.846401380800
H   -5.476500936800  2.634940542500  1.343785087400
H   -4.241118901800  4.051228608800 -0.172336825700
H   -2.155804755300  4.626915249000 -1.358303512000
H   -0.150886003800  3.213073507500 -1.066573336700
H   -0.214206146000  1.249362043600  0.348338567900
