82
-125.29270765
C   -0.209794947500  2.000506008100  0.240846064100
C   -1.338266549700  1.345319098000 -0.557547446500
N   -1.044636171300  0.007925650200 -1.076744164400
P    0.284908336900 -1.026481730600 -0.997418328000
O    0.892912864400 -0.604157305900  0.474782021900
C    2.105402051600 -1.211223179400  0.757884102000
C    3.272859812400 -0.674993865500  0.259001638600
C    2.107263792500 -2.358139915800  1.567564898700
C    3.285317861900 -2.973910994600  1.875261004200
C    4.501692204900 -2.507938200200  1.332381385200
C    4.499374792500 -1.359609614700  0.496063511400
C    5.711858546800 -0.971766407400 -0.114021089600
C    6.872373437700 -1.651617762600  0.132921344000
C    6.882676169300 -2.753639725600  1.000868462600
C    5.719451261800 -3.175920779800  1.580529419000
O    1.513380444100 -0.372120120400 -1.959070320000
C    2.359943163900  0.645844747500 -1.621232953300
C    2.365423937500  1.778118498200 -2.461349736200
C    3.187862596100  2.832657299300 -2.197572669000
C    3.214978157000  0.565733130600 -0.537076153200
C    4.006371512800  1.699427754100 -0.195386532300
C    4.004430283800  2.836016026400 -1.046732672400
C    4.804447410600  3.949210611800 -0.715093126300
C    5.553113322100  3.959450776100  0.428163769100
C    5.516634865800  2.858798389200  1.297053579700
C    4.763338835900  1.758205062700  0.995253974500
C   -1.864183666300 -0.398641825400 -2.231944596700
C   -3.346320084900 -0.267255009600 -1.960427845300
C   -4.125269208700  0.630571862000 -2.645670733800
C   -5.498934907500  0.755201180600 -2.396138778100
C   -6.098976830500 -0.022729090400 -1.450539103600
C   -5.347802961900 -0.976256252600 -0.733554891200
C   -3.957834167800 -1.117444017600 -0.995258849300
C   -3.249893194700 -2.108047702800 -0.281064036200
C   -3.874850409000 -2.902380848600  0.639281394300
C   -5.241066552300 -2.745000448200  0.908564637000
C   -5.959800495600 -1.800745361000  0.233367681600
C   -1.395975928400  0.281527163200 -3.522122046800
C   -2.624748852600  1.419158284400  0.254084296600
C   -3.545334338700  2.368880235000 -0.118069090100
C   -4.749542669200  2.552645065700  0.570879792400
C   -5.038302622500  1.777901986000  1.655977050300
C   -2.888492878100  0.627230746900  1.404784137800
C   -4.116111199000  0.810292507600  2.101151091300
C   -4.388552828500  0.030618399600  3.245147421900
C   -3.485503569000 -0.882173586700  3.708623659300
C   -2.270757947200 -1.058875814700  3.032331196000
C   -1.987586760200 -0.334176424100  1.908631400600
H    0.715209598200  2.003596999100 -0.330452900300
H   -0.040823055600  1.502124517400  1.189562609200
H   -0.490734275500  3.033142282200  0.443615401400
H   -1.497945334900  1.989288000000 -1.435752242300
H    1.160801307900 -2.725007589500  1.934974956900
H    3.297253766300 -3.844718818000  2.513887573700
H    5.712886671000 -0.132937623400 -0.793241098800
H    7.790297190600 -1.343446976400 -0.345952165500
H    7.810533229800 -3.271948317300  1.193453465200
H    5.709662164300 -4.038596857400  2.231286132200
H    1.706311875700  1.776432344900 -3.316717321800
H    3.202441887600  3.691226340300 -2.853044419700
H    4.803918198600  4.800149892100 -1.381502771500
H    6.162793318100  4.815763373900  0.676734421600
H    6.086651667000  2.886869114300  2.214315763600
H    4.732380600000  0.923213629100  1.678647634300
H   -1.655785204700 -1.469550614500 -2.372134809600
H   -3.690493058900  1.274564051300 -3.393038708600
H   -6.071663258500  1.479413308500 -2.957328710400
H   -7.154692383300  0.073517974500 -1.240761519400
H   -2.192527936300 -2.238845811400 -0.457044043300
H   -3.313066136600 -3.656461754200  1.171033653500
H   -5.716233430700 -3.374236798900  1.647089497200
H   -7.015495462700 -1.670282737900  0.426122997800
H   -1.473685131900  1.364738200300 -3.467970380600
H   -1.981802582700 -0.075129656200 -4.365579105100
H   -0.353051382100  0.020389497600 -3.688962819900
H   -3.347650465000  2.994970107200 -0.977687322500
H   -5.443752700700  3.306960050800  0.229940606200
H   -5.967738275500  1.899637426000  2.193985026900
H   -5.330987148500  0.178986661400  3.754097857100
H   -3.699007311300 -1.468588735600  4.590945080800
H   -1.557453912100 -1.779816996700  3.405801956800
H   -1.058663882600 -0.494653058400  1.394595520800
