82
-125.29585248
C   -0.452833093400  2.325961719600  1.026429736000
C   -1.432488334600  1.552998202400  0.135182649900
N   -0.760508246200  0.596284701400 -0.738656443200
P    0.062512122200 -0.817773262400 -0.222107578300
O    0.944087796700 -0.074874656700  0.956771696900
C    2.061720862300 -0.774822031500  1.363108368000
C    3.212740595300 -0.702573570100  0.607696946300
C    2.008104202100 -1.516375608400  2.554075707300
C    3.111871071300 -2.194960877600  2.983701790200
C    4.294063171500 -2.206589849400  2.213593400600
C    4.345197379600 -1.469799908600  0.999459495900
C    5.507474665600 -1.566799658800  0.203624339600
C    6.578671301700 -2.312025996400  0.611799867700
C    6.545043668800 -2.999993934900  1.834195088200
C    5.422941849800 -2.953347485500  2.612588360600
O    1.226846304800 -0.950651548200 -1.406142677500
C    2.250919480800 -0.047400779700 -1.574417077200
C    2.319287038600  0.634187559100 -2.802619634800
C    3.306670829900  1.546266948200 -3.034619365800
C    3.218947808300  0.138428244200 -0.606718705800
C    4.199032337100  1.153224609600 -0.796689228000
C    4.245863619500  1.857319219300 -2.029217733700
C    5.226098898500  2.854240836600 -2.217568122700
C    6.107067591700  3.168863561800 -1.221357387700
C    6.033842038000  2.505621988800  0.012835912100
C    5.105573313900  1.523368161400  0.220846416600
C   -1.467762816000  0.340814790700 -2.008304281700
C   -2.910717554800 -0.063259824100 -1.779473466900
C   -3.911159281100  0.877250347700 -1.792529343300
C   -5.233309766700  0.563998672900 -1.451788365200
C   -5.559149640700 -0.704648422800 -1.075416680200
C   -4.581621165200 -1.720323058400 -1.084690416600
C   -3.245017317400 -1.414662079900 -1.468518629600
C   -2.330112792500 -2.488648928500 -1.536913382400
C   -2.691492674700 -3.762342133100 -1.192748235200
C   -3.996063991200 -4.044704279000 -0.766589057800
C   -4.922329350700 -3.042074670300 -0.728228623800
C   -1.293955249100  1.520694436800 -2.969782345500
C   -2.560882442000  1.003531232900  0.988160463700
C   -2.483915900600 -0.257529680100  1.514116625600
C   -3.509021301800 -0.805411690200  2.295114712700
C   -4.628048191100 -0.072212958300  2.559068896500
C   -3.701468055100  1.805612320000  1.284155640800
C   -4.747145475500  1.244924560200  2.069307825700
C   -5.892581184600  2.016476157600  2.358756541900
C   -6.012152916200  3.300108651600  1.908413603600
C   -4.979067174800  3.865194120300  1.148358026900
C   -3.859737999300  3.139643020300  0.846360810400
H   -0.128373824800  1.724128994800  1.869024115100
H   -0.944878343100  3.216598370400  1.412494234600
H    0.419836278800  2.622370902300  0.448959029000
H   -1.861347202700  2.279915505300 -0.558477830800
H    1.083031428400 -1.524502775200  3.111530744300
H    3.084607098600 -2.753623998900  3.907699484600
H    5.538713822500 -1.050829469500 -0.743947133100
H    7.459024708500 -2.377743947600 -0.010787162400
H    7.404545433800 -3.575170221400  2.145880885400
H    5.376364556900 -3.497411729900  3.545203698100
H    1.582883525700  0.396602367200 -3.555595081700
H    3.366616705900  2.057366066900 -3.984555214500
H    5.258138431800  3.372213368300 -3.165663045100
H    6.853454399400  3.935186327800 -1.371474166900
H    6.715735524000  2.779885330400  0.804631593800
H    5.048992382000  1.028601481700  1.178710054600
H   -0.938327174900 -0.498500199400 -2.470812763700
H   -3.697362469200  1.900298322600 -2.057308127400
H   -5.980185067600  1.344026669100 -1.470270693200
H   -6.567018601800 -0.953715761300 -0.775852986700
H   -1.321834315900 -2.321893790600 -1.883448601300
H   -1.966519618200 -4.560827613600 -1.256085729100
H   -4.263230741600 -5.054218962500 -0.489814640100
H   -5.940835402800 -3.244510280200 -0.427761929400
H   -1.753954290500  1.277892186700 -3.925023907500
H   -0.233174474500  1.703849243100 -3.119874655100
H   -1.734957072900  2.440939429100 -2.598838366100
H   -1.612968438600 -0.866508226300  1.313880815700
H   -3.402870449600 -1.811221427200  2.674601287900
H   -5.434014827200 -0.483248796900  3.150074703400
H   -6.676304192900  1.567624336300  2.952955508000
H   -6.891754331900  3.884899235100  2.135416370000
H   -5.071505717100  4.884547358000  0.801147011100
H   -3.081604654500  3.613150096100  0.268167701600
