82
-125.29548218
C   -1.880000131400 -2.777018349800 -1.775859462200
C   -2.092352407100 -1.583401415000 -0.845633702100
N   -0.844688603100 -1.142316865900 -0.240670619300
P    0.593464349800 -1.416366280500 -1.045560686800
O    1.476775751000 -1.792343054400  0.309806541700
C    2.827548472900 -1.958956492700  0.094473364300
C    3.648996146900 -0.854737567700  0.012337553900
C    3.334929603300 -3.264861005900 -0.012479488200
C    4.668634985600 -3.464949202200 -0.214690149700
C    5.540084861900 -2.368036893400 -0.388326931300
C    5.027301023300 -1.046286492300 -0.298596169500
C    5.898234227300  0.028702848400 -0.578828107600
C    7.215630320200 -0.190137756500 -0.873783289400
C    7.732715085800 -1.493391526600 -0.905738026800
C    6.907806840200 -2.558589480400 -0.676545820800
O    1.278223519700  0.088417362000 -1.354068795400
C    1.982614965100  0.909226282300 -0.518393508200
C    1.577641116900  2.260605171100 -0.494643686800
C    2.199131962900  3.161261245000  0.317135709300
C    3.085884446100  0.494492362300  0.205307349500
C    3.671800531100  1.398636986800  1.140053890800
C    3.226960837900  2.745761146200  1.190369927100
C    3.820684086500  3.637276480900  2.107321750400
C    4.794185961200  3.213291982400  2.967977329800
C    5.201199165700  1.871305467400  2.954676216800
C    4.655786291000  0.987016428500  2.065157285900
C   -0.917344896000 -0.457703022900  1.056465156400
C   -2.092861418900  0.508702807400  1.093435032200
C   -1.811405569800  1.769733763000  0.620752550400
C   -2.775328274000  2.775864156800  0.513144451000
C   -4.056776458800  2.523296978600  0.903727259100
C   -4.401678326500  1.261692813500  1.425879603800
C   -3.422087298300  0.229514369000  1.529398815800
C   -3.857916539900 -1.003484013100  2.068165521200
C   -5.146919962900 -1.201534288100  2.480051734200
C   -6.099303916700 -0.180889251400  2.371669832500
C   -5.726381405300  1.023041162200  1.849905440400
C   -0.793059296900 -1.448043879400  2.223801081900
C   -2.781163197200 -0.467715295000 -1.612406696300
C   -2.015321084700  0.398810284100 -2.348107163900
C   -2.579707718200  1.475919343700 -3.041304754600
C   -3.927120056100  1.688952803700 -2.988388552000
C   -4.194240683800 -0.315245695000 -1.604624817400
C   -4.762278676300  0.799915337800 -2.281865042900
C   -6.160212448400  0.990402528900 -2.254272028300
C   -6.979266431100  0.106745814600 -1.612293293800
C   -6.428657130300 -1.016852049200 -0.980387342800
C   -5.077401613500 -1.221509811400 -0.977503694800
H   -1.353259332200 -2.470798066800 -2.676222139300
H   -2.844581631900 -3.189280721800 -2.064627518100
H   -1.297351086200 -3.545870978200 -1.271763440800
H   -2.736735481300 -1.902942670200 -0.023057070800
H    2.642368197500 -4.088290219400  0.077939968600
H    5.069834943400 -4.465880404800 -0.275301762000
H    5.509890179100  1.035689175700 -0.571882302600
H    7.865558002300  0.645396693000 -1.089497312800
H    8.778380428700 -1.647494430300 -1.128357338200
H    7.287113007600 -3.569398326100 -0.724955864800
H    0.779442472600  2.555835124600 -1.160039344600
H    1.895466500500  4.197973224500  0.317875293200
H    3.479983970600  4.662917005900  2.121949581300
H    5.243622082600  3.900888607000  3.669407573500
H    5.948737121700  1.535447780300  3.658592810900
H    4.966972771500 -0.046693587300  2.075555534100
H   -0.020005890600  0.173849232400  1.099813050100
H   -0.802290342500  1.994962347500  0.310078305600
H   -2.493179285600  3.742034313500  0.121044342300
H   -4.822839559400  3.281414851400  0.826032745000
H   -3.167430904400 -1.820245481000  2.169874126900
H   -5.436945655600 -2.158285371800  2.890869122000
H   -7.114529069100 -0.352714650000  2.698045780900
H   -6.443599674200  1.825987941600  1.753135066100
H   -1.271713512100 -2.396688588100  1.994775696200
H   -1.218991380400 -1.025498246300  3.130564158900
H    0.258668731800 -1.658294018800  2.402519184700
H   -0.943989489700  0.258583753600 -2.381089370500
H   -1.938715726600  2.138512912400 -3.605278067700
H   -4.375375981000  2.530542405900 -3.497439876900
H   -6.571207215600  1.851156523100 -2.763437530900
H   -8.048791541000  0.258843280600 -1.596161420100
H   -7.082778305900 -1.726735069900 -0.495287299200
H   -4.687772124700 -2.103541643300 -0.494991245600
