82
-125.29463822
C   -0.069347098200  1.460650381800  1.175224041600
C   -1.206666818100  0.593000612700  0.632546733800
N   -0.917045843200 -0.850326030600  0.660784464200
P    0.523367465300 -1.592739872000  0.212602292000
O    1.483328689600 -0.924956132000  1.395574266100
C    2.798056592300 -1.330499711500  1.302664590500
C    3.636516263900 -0.762910380800  0.365056982400
C    3.249517704300 -2.331088960300  2.180676923800
C    4.536400696600 -2.776481216300  2.111199008500
C    5.406105096400 -2.297382544800  1.107855421100
C    4.949648269500 -1.297923037700  0.207922600800
C    5.801156043800 -0.913126584400 -0.850311192300
C    7.055328495300 -1.444205646600 -0.974549368200
C    7.525622102300 -2.387428997500 -0.049308322400
C    6.712279687100 -2.810382767700  0.964247310900
O    1.115533279400 -0.738910725000 -1.106812626100
C    1.984214726800  0.311116635500 -1.163006068900
C    1.624287497800  1.341864246100 -2.058172637000
C    2.411734154600  2.442394608600 -2.207919827600
C    3.172699540400  0.370038316100 -0.457735395900
C    3.943079679600  1.571102550000 -0.518388661800
C    3.569837447500  2.604148481300 -1.417612549900
C    4.349627079600  3.776668169800 -1.490133806800
C    5.436985013800  3.947786699100 -0.680084822100
C    5.773418459900  2.955648650300  0.251854438100
C    5.047002721100  1.799491533500  0.331934332300
C   -2.118600577400 -1.676500281400  0.488724284200
C   -2.813368929100 -1.406520808900 -0.832401443900
C   -2.053188318800 -1.414051719200 -1.974088909300
C   -2.603236386100 -1.139405908700 -3.231858693100
C   -3.933780600000 -0.852795977800 -3.342228445100
C   -4.762493249800 -0.853801595800 -2.201426745500
C   -4.208522556700 -1.146395028900 -0.922651582200
C   -5.088706040600 -1.164242058800  0.182562136200
C   -6.419225425100 -0.887942140900  0.039321442500
C   -6.954245026000 -0.580486527300 -1.219338030000
C   -6.140071252400 -0.569100764300 -2.314650574500
C   -1.827029741800 -3.168595629500  0.626773966800
C   -2.430923734500  0.902979350800  1.472724448000
C   -2.401635533400  0.538392697600  2.798816688500
C   -3.471164900400  0.800701451500  3.661455437100
C   -4.584251762900  1.436603090200  3.189600681700
C   -3.576380268000  1.567181081100  0.956326342600
C   -4.664377344300  1.828721341800  1.838374317200
C   -5.820077359800  2.473177520500  1.347191886900
C   -5.915396819200  2.850042857900  0.039273619800
C   -4.847167154700  2.600076822700 -0.833551928300
C   -3.713649438600  1.981389633800 -0.388048801300
H    0.220108926500  1.138499430300  2.171103361300
H   -0.415870931000  2.492279340000  1.226036141300
H    0.803955499400  1.430325240900  0.532101688000
H   -1.380490407500  0.885230306000 -0.410997456600
H    2.550704624800 -2.721005832500  2.905603726400
H    4.895376328000 -3.526582282800  2.800372422200
H    5.446104253400 -0.198518423600 -1.577185627300
H    7.690442285800 -1.140496050500 -1.793940537400
H    8.523733324200 -2.786710102100 -0.154441495700
H    7.051509849200 -3.557406291600  1.667674921000
H    0.709261176300  1.220258659400 -2.618791722200
H    2.141540068800  3.217862700900 -2.909576696200
H    4.059492249100  4.544195078200 -2.193650745100
H    6.029387724200  4.849039962800 -0.739293346600
H    6.611388287200  3.111628343200  0.915596462700
H    5.308565825900  1.053453943100  1.066652331700
H   -2.784189472200 -1.403140459900  1.310747196200
H   -0.994183967200 -1.623524510900 -1.900224007400
H   -1.965319265900 -1.150817827300 -4.104138636700
H   -4.372850086800 -0.626190992200 -4.303582356300
H   -4.714089803100 -1.402129787400  1.165848003600
H   -7.068599325900 -0.906284730400  0.902481092200
H   -8.007392242100 -0.359260486500 -1.313312469700
H   -6.538509564600 -0.342889191700 -3.293910879700
H   -2.767845966800 -3.703508557200  0.742748178000
H   -1.207569005100 -3.345076566700  1.504057480600
H   -1.317064167000 -3.556883132100 -0.250914976900
H   -1.535386241900  0.015940349100  3.178800363200
H   -3.406835431800  0.494501264800  4.695606633800
H   -5.420512315200  1.645126398400  3.841625727200
H   -6.633802507500  2.659723984500  2.034019538000
H   -6.804980768100  3.338475994200 -0.330669813900
H   -4.925279003300  2.899912622500 -1.868575028400
H   -2.914241560100  1.803830942300 -1.090573622200
