43
-64.60968208
C    2.728210989400 -1.957873679700 -1.698018703300
N    2.537887646500 -1.639540297900 -0.298597011500
C    3.650118000000 -2.091577688300  0.517770179300
P    1.023856117400 -1.910534083200  0.472002216400
O    0.931963974400 -0.556381476600  1.421894713400
C    1.249779775300  0.674073174800  0.877900873900
C    2.549218493100  1.157455121400  1.019829323000
C    2.937198463300  2.341790277000  0.424691711900
C    2.047273552500  3.051722573200 -0.368725948200
C    0.757806328700  2.580982080600 -0.498665081700
C    0.333794466700  1.420131174400  0.152829624100
C   -1.145743031000  1.230749063200 -0.064422793700
C   -1.351637224200  1.989792559900 -1.398508232000
C   -0.350006480200  3.148630704200 -1.337460876200
C   -1.988598740000  1.886039508400  1.057321559700
C   -3.383533038700  1.263012784400  0.903498967900
C   -3.077962976400 -0.094794196500  0.341112715300
C   -3.887071690200 -1.210975222800  0.291708761700
C   -3.359592664600 -2.397391380000 -0.200583531000
C   -2.033267944900 -2.470702776100 -0.583718596800
C   -1.221490574300 -1.340438371400 -0.540534657200
C   -1.760315915500 -0.140197364300 -0.115693580700
O    0.127271243600 -1.438642086700 -0.838348881400
H    1.840779193300 -1.677007330400 -2.257592339800
H    2.937844377700 -3.022348413700 -1.861511731300
H    3.575810630700 -1.377235119900 -2.070393653000
H    4.534881332200 -1.497150146600  0.277484060600
H    3.888740165900 -3.149554601100  0.353946754300
H    3.402710114700 -1.951294273500  1.570093887900
H    3.250515353800  0.579156924000  1.600905097800
H    3.949586521400  2.695667960300  0.553075483200
H    2.360323495200  3.949665555300 -0.880690270200
H   -2.379916268400  2.320287021100 -1.528187026300
H   -1.096553242400  1.324806513000 -2.226580181100
H   -0.785596358300  4.025588137800 -0.851949614000
H   -0.001626105900  3.453129962100 -2.324744999800
H   -1.997131618000  2.971369656000  0.983922701700
H   -1.565495077000  1.608732207800  2.025275385700
H   -3.919705191100  1.201665776200  1.850743880000
H   -4.000486859700  1.836199865200  0.207111831000
H   -4.906094644800 -1.169891106900  0.646437924000
H   -3.975367148500 -3.283133203800 -0.247479705900
H   -1.598014725900 -3.406004890600 -0.903975068600
