43
-64.60892884
C    3.556141450800 -2.695319480700  0.026379246600
N    2.552847242500 -1.692529304900 -0.266745425800
C    2.735048757100 -1.064375618000 -1.557192698600
P    1.042762707100 -1.939686416300  0.470573157900
O    0.885204058300 -0.590343988000  1.440286855100
C    1.230763346700  0.637242430200  0.920086866800
C    2.539888129000  1.091395964300  1.076771933400
C    2.954272108100  2.274095456400  0.495633492900
C    2.085736538400  3.007590074400 -0.300993943000
C    0.788949494800  2.561985248000 -0.450779088500
C    0.338017029000  1.405669288800  0.188913716400
C   -1.139045441000  1.232208651300 -0.051590718700
C   -1.316876373900  2.001920813600 -1.383756967300
C   -0.299491507400  3.147111277800 -1.303319568600
C   -1.991200731500  1.890216916400  1.061279270500
C   -3.387600576000  1.276643941700  0.888189541300
C   -3.082330566100 -0.083561841300  0.331615295500
C   -3.898058958100 -1.194445054900  0.277719178200
C   -3.373523152000 -2.385640969800 -0.206129750700
C   -2.044720696200 -2.467147618500 -0.577265604700
C   -1.225303620600 -1.342339773500 -0.529031562200
C   -1.760300543400 -0.136637536400 -0.112691890300
O    0.121919115200 -1.454461600700 -0.823048391700
H    4.536183123400 -2.217420164300  0.108033176000
H    3.612417773600 -3.466356922800 -0.750990688900
H    3.317208004900 -3.170334807800  0.976789127000
H    2.680561321100 -1.789817681200 -2.377966473900
H    3.716516397600 -0.584363710600 -1.579127495100
H    1.974459753800 -0.303256212800 -1.708087534500
H    3.223044759400  0.486572105700  1.653707724200
H    3.971915301700  2.608130315700  0.635053294500
H    2.421717364400  3.903378613900 -0.801966433300
H   -2.338357294600  2.348874311100 -1.523458775300
H   -1.063418305200  1.338952420200 -2.214119520000
H   -0.730570859600  4.027755075100 -0.820628316200
H    0.066832580400  3.450978304700 -2.284394187500
H   -1.991309099300  2.975824381300  0.990670285100
H   -1.582148706400  1.607313142900  2.033658101200
H   -3.937826999600  1.219827343400  1.827596128900
H   -3.990485659100  1.853092176500  0.182147433300
H   -4.920082149000 -1.145401595600  0.622706171600
H   -3.994220110500 -3.267767951500 -0.256426330300
H   -1.611790371000 -3.405371429800 -0.891799874900
