49
-70.33376933
C    2.783974716700  1.613786852800  2.591572790800
O    2.070048107000  1.257924121400  1.428360708200
C    2.418487823500  0.110478731400  0.767497012900
C    3.409703525100 -0.757870195700  1.192298912900
C    3.654522480000 -1.913217949400  0.464671329000
C    2.939702327100 -2.181506873300 -0.676475104700
C    1.945315824000 -1.303509378600 -1.128625201100
O    1.384129433300 -1.707265332500 -2.303300241500
C    0.526780215300 -0.879684610500 -3.053735975200
C    1.658014071600 -0.155468431200 -0.391903260000
C    0.615153560700  0.852376488500 -0.705077115100
C    1.000680835900  2.122230215700 -1.130561531100
C    0.061733233000  3.109062522400 -1.369601496200
C   -1.289708969700  2.856258799300 -1.204484903400
C   -1.682621202600  1.595763557300 -0.784755510900
C   -0.737505411600  0.601077426900 -0.499239872700
P   -1.554828996800 -0.956184742400  0.001781381400
C   -1.595730656100 -0.797738175200  1.905450504600
C   -0.295606937100 -1.432043818600  2.403686747700
C   -1.696051336800  0.643246718000  2.396652607900
C   -2.775007151600 -1.630090270600  2.415699096600
C   -3.188424574700 -0.121583426800 -0.482344652100
C   -3.693801287100 -0.709053370100 -1.800790635700
O   -2.989501836200  1.282395330100 -0.621657504300
H    3.846250480200  1.765249598700  2.378481737900
H    2.343560549000  2.553099666200  2.922699797800
H    2.669639583700  0.861320898600  3.377732832000
H    3.984768073400 -0.555971890300  2.080473351900
H    4.419063610800 -2.598840620400  0.796628042000
H    3.126165398700 -3.066654715700 -1.263283210800
H    0.463132807900 -1.351228644100 -4.034750647800
H    0.923675075700  0.132243464000 -3.157931604500
H   -0.472224189100 -0.834266643000 -2.610219716400
H    2.051030017500  2.328102157300 -1.276941750800
H    0.382988478500  4.086222238600 -1.698625727900
H   -2.036098098200  3.610796392000 -1.397970226200
H   -0.211936607500 -2.460690627700  2.055059843800
H   -0.268680764900 -1.432856619100  3.492681574700
H    0.564807321800 -0.879897849700  2.036401819900
H   -0.819325221500  1.214900326600  2.094939991300
H   -1.755897413100  0.655848179100  3.484712092600
H   -2.582519732800  1.139071591400  2.004094266700
H   -2.774540378500 -2.617285341100  1.953983571200
H   -3.728544576800 -1.150041584300  2.206385454600
H   -2.695468030700 -1.757592898800  3.494357745900
H   -3.955302019900 -0.258561760100  0.287160575700
H   -2.959617641800 -0.553386268900 -2.590412397500
H   -4.624450738700 -0.227305163700 -2.095124467100
H   -3.863113170700 -1.776948710700 -1.681852163100
