49
-70.34278356
C    0.365585808900 -3.273895520800 -1.742828317100
O    0.424686726800 -1.913182187100 -1.372118783900
C    1.545743990300 -1.455072534200 -0.744402990200
C    2.621325001400 -2.259714637700 -0.384481812900
C    3.717785312300 -1.697289049800  0.241113127100
C    3.767937636900 -0.344883433300  0.522478656700
C    2.700714012400  0.470067401000  0.162500792100
O    2.637036391300  1.809854426000  0.422825022100
C    3.718256680300  2.424376636100  1.088638635600
C    1.582251799600 -0.078724224600 -0.479627584400
C    0.460445774200  0.779732731800 -0.904820664800
C    0.676352864700  1.891866948000 -1.716047137900
C   -0.384075757400  2.667340072000 -2.150000735600
C   -1.690087510400  2.346591441700 -1.815133075900
C   -1.914171034600  1.236480641100 -1.016603909000
C   -0.843904286100  0.475082460700 -0.536041961600
P   -1.423580471000 -0.890103366900  0.517590219500
C   -1.395441399900 -0.038327711500  2.228885353000
C   -2.197448971100 -0.940034121400  3.169498240300
C    0.070313750000 -0.018204449500  2.666360357100
C   -1.950798919800  1.382881856800  2.248919647800
C   -3.166607889400 -0.454727065800 -0.084753333800
C   -3.591662268900 -1.481776904900 -1.134416424700
O   -3.163197702600  0.850983498800 -0.657643674100
H    0.388785578500 -3.928111228400 -0.866906376900
H   -0.587328498700 -3.394281775200 -2.254785925000
H    1.180712145600 -3.535309511000 -2.423852365100
H    2.612322290000 -3.318259602000 -0.583790542500
H    4.549800040600 -2.326721072600  0.519457176900
H    4.633840347600  0.061336257800  1.018395067800
H    4.642655177200  2.346686482100  0.508284148500
H    3.871250350700  1.996233311600  2.083941561800
H    3.438448299700  3.472437215100  1.184524581800
H    1.683488048400  2.141580809600 -2.012980154900
H   -0.195788882000  3.528176455900 -2.774979763300
H   -2.525104446000  2.933942697100 -2.164873410500
H   -3.247890590400 -0.970807678400  2.885039717200
H   -2.132944473500 -0.570230875500  4.191967186200
H   -1.806032708600 -1.956389350900  3.145865338100
H    0.501854182100 -1.017571554000  2.615754737100
H    0.154719532900  0.342789149200  3.690867555700
H    0.650102306400  0.638520433900  2.020869376400
H   -1.369084003600  2.037230864300  1.600751176500
H   -1.898037540500  1.778134530500  3.263482567600
H   -2.990091709000  1.417106873400  1.928619608500
H   -3.895997330500 -0.443389840100  0.732997154800
H   -2.861331225900 -1.503709502500 -1.942455706400
H   -4.564544354100 -1.221842939400 -1.548250085600
H   -3.644875527800 -2.467656365900 -0.677982679400
