49
-70.33654285
C    1.941201540700  2.867104661600  0.754016361400
O    2.774113861500  2.188005411600 -0.163681810500
C    2.758602476100  0.803273447200 -0.108273086300
C    3.924208743300  0.178805864300  0.321310352500
C    4.003681017800 -1.198458885800  0.337461867000
C    2.928051821600 -1.966775604500 -0.071636562000
C    1.756961128700 -1.355368149600 -0.501359761000
O    0.670867372000 -2.036807255700 -0.959136504200
C    0.745825383200 -3.442093890900 -1.073677987000
C    1.653292471600  0.048618058400 -0.515035358300
C    0.425219091400  0.688118560200 -1.024346413800
C    0.523772530800  1.683566759800 -1.997524030100
C   -0.606961459900  2.300338619800 -2.501377592600
C   -1.869733037300  1.927709012700 -2.072191131700
C   -1.978506647100  0.922791704100 -1.123443776900
C   -0.840785684800  0.316924201700 -0.576326038200
P   -1.304525084300 -0.969959780400  0.631673037400
C   -1.307738657500  0.023491068900  2.264048914400
C   -1.836875901500  1.448885884800  2.137819958000
C   -2.146551908300 -0.769377589200  3.268529492000
C    0.148744229400  0.039207607800  2.733888751900
C   -3.089037452300 -0.719532606900  0.044533356100
C   -3.476159013100 -1.892931995100 -0.855918096600
O   -3.187669714700  0.501691235500 -0.682252907700
H    2.085867398100  3.927859774200  0.556098791900
H    0.887461537200  2.613103326200  0.609591688000
H    2.233334778000  2.644138170900  1.786046445400
H    4.756574028200  0.793706396700  0.626528546300
H    4.909314472800 -1.682709151700  0.669641451000
H    3.013135297300 -3.040678600000 -0.056967216000
H    0.877867111900 -3.916187166500 -0.097406393600
H    1.554534644700 -3.741611811200 -1.746121708800
H   -0.209817587200 -3.749160719000 -1.494202569000
H    1.500719943700  1.971117671100 -2.355726789600
H   -0.506240223800  3.072888044500 -3.249301142500
H   -2.762140118500  2.389415984400 -2.465437740600
H   -2.863346256500  1.464039596800  1.776222306800
H   -1.226392572700  2.035989593800  1.453187133000
H   -1.814894331500  1.935374532400  3.112862408000
H   -2.030097889500 -0.347483052100  4.265888570300
H   -1.824615502300 -1.809872901300  3.296358304500
H   -3.203884113600 -0.743753460900  3.012976804800
H    0.239861918100  0.578937822400  3.675660722500
H    0.788164052800  0.518931618100  1.996166135000
H    0.510548041500 -0.977418162800  2.882805952000
H   -3.794938352700 -0.652047334900  0.879312183700
H   -2.771307074900 -1.971268148900 -1.683028314200
H   -4.475988395900 -1.746967166200 -1.261268361900
H   -3.451397587200 -2.815719889100 -0.280638929000
