49
-70.33574165
C    1.997555531300  2.682929107200  0.835221015900
O    3.051606015300  1.800484264600  0.511415486400
C    2.830504876200  0.484195079300  0.204442332400
C    3.906784060300 -0.346271536600  0.531242007000
C    3.848067714800 -1.698206325500  0.288423988900
C    2.713968850000 -2.260824970400 -0.275343798800
C    1.642281319900 -1.450796337200 -0.616290431500
O    0.506775369400 -1.912205196100 -1.216065522400
C    0.432148476000 -3.276284804700 -1.570270498000
C    1.686057570400 -0.058723567900 -0.386837116400
C    0.557857679700  0.749953186500 -0.892253972200
C    0.798488859500  1.768222006700 -1.814627786800
C   -0.243011472600  2.513770658300 -2.339142264000
C   -1.554549590100  2.247592592100 -1.984727326900
C   -1.805733323400  1.208697338800 -1.101334966800
C   -0.758348347100  0.474761443700 -0.533194858900
P   -1.394952141100 -0.866812848200  0.527592873700
C   -1.425394665000 -0.034409518000  2.247266016700
C   -0.017048042200 -0.224183792600  2.817035510100
C   -1.800264323100  1.444528155500  2.223036610500
C   -2.414233301100 -0.818580630000  3.112933810200
C   -3.114334654100 -0.413937435200 -0.131115036100
C   -3.539015567500 -1.469757209300 -1.151922216700
O   -3.068895926000  0.867872358300 -0.751799118600
H    1.156586428200  2.158352013200  1.289129294400
H    2.415246927400  3.388615828400  1.555486728300
H    1.645397710000  3.229371185900 -0.043623202700
H    4.776206169700  0.109955960400  0.977420364700
H    4.684795287200 -2.329247135300  0.546437822900
H    2.682602756000 -3.322977390300 -0.450689378900
H    1.233992593500 -3.550495515100 -2.261721429700
H   -0.530272563600 -3.394891262500 -2.064610721300
H    0.465076921500 -3.921054857200 -0.687801634700
H    1.814166028200  1.959921335400 -2.131247766800
H   -0.033396854800  3.302558063200 -3.046731320500
H   -2.378117093900  2.809948079700 -2.396467463900
H    0.212852026200 -1.284709396600  2.911648051300
H    0.063060632500  0.235431235500  3.801378073200
H    0.734135420700  0.219283927700  2.166248630800
H   -2.795445075800  1.594737906200  1.808404225200
H   -1.095485464400  2.022273178000  1.626594154100
H   -1.793494893900  1.842023209700  3.237901255600
H   -2.319601606700 -0.513162298300  4.154097495400
H   -2.212144439500 -1.887373111000  3.049473497000
H   -3.442460030500 -0.644140337800  2.803131850300
H   -3.862351680300 -0.355663462500  0.666521165000
H   -2.794692684600 -1.534858438600 -1.944803106400
H   -4.498828077500 -1.207243362700 -1.593677970400
H   -3.619940982500 -2.437268225300 -0.661458445000
