55
SIG-NIHDA-2064 | MMFF94/ETKDGv3 ensemble | attach_idx=10 axis_idx=11 relative_energy_kcal_mol=0.17208368 boltzmann_weight=0.2272057254
N    2.5873287580 -0.2615399272  0.9029381876
C    3.7726878302  0.2103331306  1.5532410816
C    4.9258554007  0.5687460869  0.8148493419
C    6.0829209186  1.0343998562  1.4684495054
C    6.1279746320  1.1283964645  2.8548205316
C    5.0169424656  0.7609615908  3.6000355880
C    3.8599173793  0.3068735971  2.9574285840
C    4.9560223976  0.4945551979 -0.6893304805
C    3.8078507621 -0.3349774264 -1.2290951603
C    2.5272147536  0.0903309401 -0.5286193091
P    1.2217133256 -0.8438896336  1.6515649014
O    0.3058531401  0.4880860277  1.7034587621
C   -0.4174382844  1.0155644601  0.6555035145
C   -0.1292933413  2.3602638715  0.4018281493
C   -0.7962562401  3.0410992533 -0.6028547883
C   -1.7354051546  2.3801666714 -1.3928109551
C   -2.3452021766  3.0765342367 -2.4502541570
C   -3.2420604738  2.4439011803 -3.3056170357
C   -3.5260195552  1.1008648716 -3.1218003033
C   -2.9321921491  0.4022238237 -2.0663274188
C   -2.0502248230  1.0150701755 -1.1388740341
C   -1.4396656273  0.3126016646 -0.0294490031
C   -1.8213337926 -1.0247709246  0.3843106581
C   -3.1807453212 -1.4684300485  0.6077452602
C   -4.2937343456 -0.5907469304  0.6485128714
C   -5.6016900577 -1.0409194199  0.8496105971
C   -5.8446056504 -2.3916053533  1.0400689096
C   -4.7769942842 -3.2846058402  1.0544683172
C   -3.4572432774 -2.8418126751  0.8628078885
C   -2.4124437652 -3.7644288734  0.9461049953
C   -1.0974602851 -3.3448362765  0.8255142955
C   -0.8199628489 -1.9986161540  0.5825343675
O    0.5107485867 -1.6703729739  0.4559492147
H    6.9585385840  1.3203536754  0.8896397317
H    7.0267568344  1.4840224002  3.3505659713
H    5.0410093833  0.8271917854  4.6844509053
H    3.0178921034  0.0416373932  3.5901687494
H    4.8947204710  1.5154188360 -1.0867050150
H    5.9030408131  0.0594142371 -1.0297409871
H    3.9939473282 -1.4028389945 -1.0568834737
H    3.7219674466 -0.1881541775 -2.3114400678
H    2.3755348251  1.1722916812 -0.6414449304
H    1.6993998253 -0.3912365951 -1.0605091785
H    0.6267239034  2.8701956849  0.9946523378
H   -0.5496784085  4.0851984409 -0.7815222658
H   -2.1120796810  4.1248943619 -2.6270106602
H   -3.6999205108  2.9943387934 -4.1227465237
H   -4.2039082401  0.5861379233 -3.7976907662
H   -3.1633574127 -0.6586736681 -1.9873472613
H   -4.1515204691  0.4827831617  0.5366515561
H   -6.4228576389 -0.3290412053  0.8627514972
H   -6.8584182142 -2.7490485171  1.1976200336
H   -4.9843160841 -4.3378034132  1.2342474665
H   -2.6116332704 -4.8164256769  1.1379352650
H   -0.2849004852 -4.0600767705  0.9196679290
