55
SIG-NIHDA-2064 | MMFF94/ETKDGv3 ensemble | attach_idx=10 axis_idx=11 relative_energy_kcal_mol=2.92835933 boltzmann_weight=0.0021679796
N    2.7996105993  1.2969943477  0.5073345651
C    3.1037486608 -0.0962425406  0.4351778391
C    4.3112776605 -0.5521069187 -0.1513909565
C    4.6043906691 -1.9279844606 -0.2269893125
C    3.7076572598 -2.8730880209  0.2557841637
C    2.5182353226 -2.4499927970  0.8288220066
C    2.2285515519 -1.0836501780  0.9201546324
C    5.3386200722  0.4054608193 -0.6991976250
C    4.7774269332  1.8048280917 -0.8606487055
C    3.9916032397  2.1587754377  0.3905670452
P    1.3717720111  2.1414806078  0.5129785586
O    0.4752732652  1.3257943209  1.5799308349
C   -0.8859105082  1.5362749182  1.5876841860
C   -1.3869943983  2.2545673956  2.6747001976
C   -2.7474809523  2.5007509567  2.7675034328
C   -3.6129477567  2.0660348946  1.7614655908
C   -4.9783406089  2.3867734668  1.8477977185
C   -5.8674694703  2.0247474898  0.8397854366
C   -5.3969630661  1.3502835982 -0.2753715796
C   -4.0424583155  1.0178139754 -0.3672569955
C   -3.1091664357  1.3247398930  0.6550761620
C   -1.7069779778  0.9747217707  0.5863739673
C   -1.1169892662  0.0966504114 -0.4062305087
C   -1.6475985515 -1.2096234333 -0.7382058485
C   -2.6768683761 -1.8508372984 -0.0008337686
C   -3.1857341826 -3.1069420755 -0.3446792077
C   -2.6658984372 -3.7865041617 -1.4336507985
C   -1.6218956169 -3.2197143825 -2.1581028462
C   -1.0978257382 -1.9617687155 -1.8146936050
C   -0.0087726373 -1.4676473617 -2.5304605667
C    0.5727306482 -0.2635036508 -2.1705326834
C    0.0518911293  0.4828543152 -1.1090815751
O    0.7205526208  1.6680390657 -0.8889169531
H    5.5381344315 -2.2636397440 -0.6725776444
H    3.9358070288 -3.9326082993  0.1872834097
H    1.8052288553 -3.1755340161  1.2113742830
H    1.2929301100 -0.8193404158  1.3975668834
H    5.7062768305  0.0533760730 -1.6702977685
H    6.1902475625  0.4276733197 -0.0076412459
H    5.5950541277  2.5167252486 -1.0182766244
H    4.1257250212  1.8537793137 -1.7424080610
H    4.6160323625  2.0408551648  1.2876706301
H    3.7431950737  3.2286761385  0.3449993074
H   -0.7119786717  2.6184204103  3.4443557900
H   -3.1215715782  3.0638673703  3.6195624621
H   -5.3613344761  2.9403532012  2.7029608783
H   -6.9189405236  2.2866647933  0.9182820385
H   -6.0751178879  1.0839639153 -1.0818377577
H   -3.7155741645  0.5161787565 -1.2766110322
H   -3.0960262343 -1.3767973959  0.8848059587
H   -3.9822849798 -3.5485852638  0.2482188670
H   -3.0546675321 -4.7631839003 -1.7075165245
H   -1.2042106367 -3.7808960021 -2.9918115546
H    0.4258106592 -2.0334266548 -3.3509525004
H    1.4502152739  0.0954982056 -2.7020425956
