55
SIG-NIHDA-2064 | MMFF94/ETKDGv3 ensemble | attach_idx=10 axis_idx=11 relative_energy_kcal_mol=4.36651525 boltzmann_weight=0.0001913725
N    2.7850672180  0.0318183589  0.9817511682
C    3.7593100519 -0.5246306435  0.0929851619
C    4.8439158391  0.2371047697 -0.4008939371
C    5.7664553357 -0.3145255239 -1.3116226161
C    5.6577755706 -1.6380561385 -1.7197537574
C    4.6269359352 -2.4193996598 -1.2213684256
C    3.6981901770 -1.8697243204 -0.3296479719
C    5.0411228075  1.6664076695  0.0167796925
C    4.4263079154  1.8775693279  1.3813467992
C    2.9686031692  1.4532652611  1.3331509507
P    1.4342900608 -0.7351196072  1.5964424587
O    0.7086401861 -1.1370817564  0.2024406450
C   -0.5407810653 -1.7034601895  0.2834979291
C   -0.6178547843 -3.0786246672  0.0559308342
C   -1.8439202642 -3.7193304585  0.1327960131
C   -2.9921854587 -3.0027466259  0.4758269594
C   -4.2105064928 -3.6885531542  0.6169202812
C   -5.3674909164 -3.0247879761  1.0149176524
C   -5.3149444976 -1.6681546991  1.2918594020
C   -4.1104891423 -0.9742203616  1.1452546284
C   -2.9185315948 -1.5982198546  0.6978229463
C   -1.6653731667 -0.8937627275  0.5225534202
C   -1.4987142899  0.5466965227  0.5534004367
C   -2.3546973163  1.4515546854 -0.1881829984
C   -3.2745655494  1.0275310023 -1.1833568104
C   -4.1088036635  1.9121741634 -1.8739321109
C   -4.0403599104  3.2699365012 -1.6117581877
C   -3.1185791565  3.7397565631 -0.6817409612
C   -2.2687268520  2.8580146950  0.0084447784
C   -1.3193865994  3.3834435329  0.8800373193
C   -0.4194678379  2.5436162531  1.5152501658
C   -0.4728007513  1.1569824284  1.3231248581
O    0.4807641600  0.4849441994  2.0622875070
H    6.5823635454  0.2924406450 -1.6978587211
H    6.3766672435 -2.0577592804 -2.4173707039
H    4.5335556074 -3.4584526406 -1.5249740578
H    2.9143165371 -2.5316454413  0.0248317025
H    4.5781644294  2.3255789430 -0.7272185977
H    6.1087524947  1.9106540157  0.0657914276
H    4.5020672597  2.9332992234  1.6650316681
H    4.9635438102  1.2956250223  2.1414689199
H    2.4295356821  2.0764514602  0.6073754862
H    2.5624813510  1.6780565061  2.3279695366
H    0.2803284121 -3.6431810688 -0.1774171473
H   -1.8877894167 -4.7915966724 -0.0440600998
H   -4.2647872038 -4.7594727101  0.4308080164
H   -6.3000661924 -3.5709252763  1.1263795847
H   -6.2047325665 -1.1423937675  1.6280981075
H   -4.1126221793  0.0830796718  1.4047511732
H   -3.3436995360 -0.0243308466 -1.4555908646
H   -4.8022345749  1.5312906304 -2.6190854705
H   -4.6843305026  3.9645305335 -2.1436794788
H   -3.0562605462  4.8128129320 -0.5110093074
H   -1.2468789236  4.4553705648  1.0483761620
H    0.3324261529  2.9701499858  2.1740982555
