55
SIG-NIHDA-2064 | MMFF94/ETKDGv3 ensemble | attach_idx=10 axis_idx=11 relative_energy_kcal_mol=2.92835896 boltzmann_weight=0.0021679810
N    2.8456960835 -0.5768682718 -1.1603435783
C    3.1101267762 -0.3310024204  0.2211239763
C    4.2893915004  0.3400879527  0.6321908061
C    4.5431995969  0.5869727125  1.9957518043
C    3.6340016285  0.1942464075  2.9701974768
C    2.4716019010 -0.4590054498  2.5904687696
C    2.2213703214 -0.7202730314  1.2383321156
C    5.3277725680  0.7996255902 -0.3592973955
C    4.8006063878  0.7774920609 -1.7808602101
C    4.0571401448 -0.5290308115 -2.0013258006
P    1.4418275874 -0.7239885712 -2.0317829261
O    0.7420840241  0.7048577580 -1.7448894695
C    0.0362729716  1.0449276439 -0.6106834850
C    0.5092631324  2.2020993851  0.0156014842
C   -0.1135434323  2.6856062187  1.1540129904
C   -1.1966819249  2.0025152312  1.7042099061
C   -1.7631045178  2.4776701240  2.8993648334
C   -2.8029658921  1.7959003580  3.5237842934
C   -3.2760772664  0.6194076758  2.9670814026
C   -2.7248795710  0.1435966110  1.7734505680
C   -1.6980639458  0.8289202729  1.0732716454
C   -1.1240681636  0.3595418626 -0.1710415083
C   -1.6643716947 -0.7469477043 -0.9379234479
C   -3.0543763447 -0.8971370936 -1.3103297612
C   -4.0216631103  0.1270937119 -1.1499757310
C   -5.3638950400 -0.0426555715 -1.5010583171
C   -5.7871327482 -1.2431596488 -2.0483467710
C   -4.8628617171 -2.2609901297 -2.2661595362
C   -3.5092895563 -2.0978276808 -1.9258075572
C   -2.6067570622 -3.1230184543 -2.2165710258
C   -1.2562470625 -2.9624438053 -1.9511016474
C   -0.8029110069 -1.7837988060 -1.3561919794
O    0.5514512098 -1.7118767638 -1.1159508009
H    5.4557644835  1.0959487902  2.2978482312
H    3.8316349226  0.3946149970  4.0190697965
H    1.7493572095 -0.7730563136  3.3393834690
H    1.3058563229 -1.2524649528  1.0108121445
H    6.1972176180  0.1351292300 -0.2784962399
H    5.6606677112  1.8158467570 -0.1171283118
H    5.6328326064  0.8729345199 -2.4868711084
H    4.1279568828  1.6280589332 -1.9502638558
H    4.7010728152 -1.3873907798 -1.7622102002
H    3.8366652493 -0.6181053645 -3.0745996134
H    1.3820931306  2.7122724176 -0.3834699051
H    0.2843310220  3.5796890780  1.6278197966
H   -1.3822968581  3.3838031003  3.3666543569
H   -3.2248074630  2.1725160668  4.4512836845
H   -4.0686808833  0.0604662698  3.4574237134
H   -3.1081564233 -0.8037818145  1.3988314505
H   -3.7319814831  1.0986489921 -0.7530142950
H   -6.0695611592  0.7698541408 -1.3491675169
H   -6.8287927692 -1.3825008156 -2.3238173983
H   -5.2086114072 -3.1865520648 -2.7224817002
H   -2.9434359237 -4.0463716592 -2.6825275086
H   -0.5520413808 -3.7500968904 -2.2042801137
