55
SIG-NIHDA-2064 | MMFF94/ETKDGv3 ensemble | attach_idx=10 axis_idx=11 relative_energy_kcal_mol=0.00000000 boltzmann_weight=0.3037788134
N    2.6822260576  0.6851340919 -0.4231786512
C    3.5070324404 -0.1102829281 -1.2810686052
C    4.3975441224 -1.0833675129 -0.7730440077
C    5.1668715033 -1.8849066974 -1.6388293489
C    5.0967760669 -1.7146163836 -3.0162931628
C    4.2566268839 -0.7436216565 -3.5394058335
C    3.4785573101  0.0445285866 -2.6839428432
C    4.5309218191 -1.3184705337  0.7047678498
C    4.1472341926 -0.0642758491  1.4558498763
C    2.7571328894  0.3669641399  1.0193588276
P    1.4178116552  1.6639898143 -0.9221260406
O    0.6565479049  1.9971442572  0.4695141475
C   -0.6796833872  2.3333805022  0.4546791076
C   -0.9760523617  3.6702298013  0.7236757075
C   -2.2976630356  4.0847510480  0.7708224752
C   -3.3312000685  3.1801882704  0.5169867588
C   -4.6582420815  3.6422419164  0.5106321883
C   -5.7152372170  2.7901641195  0.2034375461
C   -5.4544981708  1.4677613889 -0.1175773435
C   -4.1391380937  0.9951379939 -0.1053319068
C   -3.0364079224  1.8135450113  0.2475018703
C   -1.6695051165  1.3410887783  0.2814637099
C   -1.2642771863 -0.0451253357  0.1579576253
C   -1.8343488037 -1.1352525363  0.9207858107
C   -2.7239907120 -0.9500702681  2.0099899697
C   -3.2749283627 -2.0174332244  2.7252602649
C   -2.9377118220 -3.3187237410  2.3908173763
C   -2.0310917999 -3.5475732490  1.3600430138
C   -1.4644091195 -2.4815412877  0.6409839564
C   -0.5124543274 -2.7583332047 -0.3407980028
C    0.1084666894 -1.7247988599 -1.0225086142
C   -0.2406604365 -0.3994708359 -0.7524606449
O    0.4158131651  0.5369631396 -1.5251015420
H    5.8328494081 -2.6433608396 -1.2330255267
H    5.6992087703 -2.3320145835 -3.6764136888
H    4.1976551424 -0.5931497265 -4.6139899255
H    2.8397424797  0.7889972921 -3.1507168809
H    5.5630400199 -1.5852791841  0.9605804036
H    3.8847860149 -2.1564132773  0.9929069081
H    4.8693880581  0.7385794333  1.2582576149
H    4.1611524264 -0.2567690355  2.5345160982
H    2.5186835302  1.2440332756  1.6343545130
H    2.0290055099 -0.4164278847  1.2682796468
H   -0.1742183323  4.3820588045  0.8989520416
H   -2.5118475796  5.1305189451  0.9799943223
H   -4.8799590337  4.6845737509  0.7317131396
H   -6.7349498969  3.1650232697  0.1952440497
H   -6.2674307287  0.7981723464 -0.3860036242
H   -3.9826700517 -0.0418461742 -0.3975363774
H   -2.9952628878  0.0529799484  2.3342517136
H   -3.9612526970 -1.8224070298  3.5451092914
H   -3.3618696211 -4.1537687450  2.9413565020
H   -1.7559602023 -4.5751222532  1.1297803797
H   -0.2209206374 -3.7817733937 -0.5651658554
H    0.8727676131 -1.9419537083 -1.7648004693
