55
SIG-NIHDA-2064 | MMFF94/ETKDGv3 ensemble | attach_idx=10 axis_idx=11 relative_energy_kcal_mol=2.78216069 boltzmann_weight=0.0027747224
N    2.8358194580 -0.9393397045  0.6653924216
C    3.1750327050  0.1235007383 -0.2316899995
C    4.4907594740  0.6525282251 -0.2853767981
C    4.8172722569  1.7140151246 -1.1548996796
C    3.8647742934  2.2532420823 -2.0083888492
C    2.5813194608  1.7332652538 -2.0001533951
C    2.2514543730  0.6844684098 -1.1318414305
C    5.5943861215  0.1320061920  0.5969959416
C    5.2390613436 -1.2198252378  1.1739292611
C    3.8332481308 -1.1446172900  1.7411012544
P    1.4216096489 -1.7507160744  0.9940322165
O    0.6529945716 -1.7618919320 -0.4257842565
C   -0.6832975309 -2.0972591469 -0.4319853626
C   -0.9965184544 -3.3482376816 -0.9664992528
C   -2.3171606348 -3.7651835879 -1.0114231913
C   -3.3296726888 -2.9569045238 -0.4902874748
C   -4.6516311620 -3.4332874422 -0.4864944309
C   -5.6836749219 -2.6867916754  0.0750662062
C   -5.4017574457 -1.4599448783  0.6541012782
C   -4.0919917395 -0.9719839211  0.6473840470
C   -3.0175145715 -1.6755865918  0.0466602010
C   -1.6587690007 -1.1795751886  0.0143662009
C   -1.2553814097  0.1656780060  0.3802405705
C   -1.9013845762  1.3590853096 -0.1275810427
C   -2.8637422272  1.3499791580 -1.1709485034
C   -3.4876372429  2.5110023697 -1.6377632694
C   -3.1544168860  3.7392840887 -1.0920901260
C   -2.1793419949  3.8048825612 -0.1018128326
C   -1.5401184059  2.6443633149  0.3669263662
C   -0.5220189952  2.7716183859  1.3098572244
C    0.1731471034  1.6537196153  1.7393590269
C   -0.1643786469  0.3841644619  1.2602536817
O    0.5970502960 -0.6250355088  1.8076520145
H    5.8274158342  2.1175290951 -1.1682705401
H    4.1231551703  3.0677278998 -2.6783480419
H    1.8215915547  2.1366279635 -2.6646140776
H    1.2294355212  0.3341901313 -1.1860465161
H    5.7620437619  0.8532311184  1.4065808890
H    6.5279080562  0.0434955753  0.0287330907
H    5.2926511702 -1.9945944349  0.3984138380
H    5.9562224216 -1.4897169380  1.9569944818
H    3.6654726922 -2.0839772630  2.2880438155
H    3.7537125704 -0.3357674565  2.4818261948
H   -0.2065384632 -3.9918611801 -1.3437375347
H   -2.5440993262 -4.7437539942 -1.4285104950
H   -4.8877299168 -4.4067720539 -0.9120072414
H   -6.6993001395 -3.0726508910  0.0763368344
H   -6.1934314351 -0.8780286550  1.1186885370
H   -3.9155835211 -0.0180971185  1.1417559453
H   -3.1362311390  0.4166179851 -1.6602684195
H   -4.2263655697  2.4459506025 -2.4322488059
H   -3.6335618355  4.6464958523 -1.4491419099
H   -1.9066941149  4.7816252106  0.2934191145
H   -0.2318292145  3.7472241840  1.6925905512
H    0.9942352205  1.7638814553  2.4430296667
