50
SIG-NIHDA-724 | MMFF94/ETKDGv3 ensemble | attach_idx=4 axis_idx=5 relative_energy_kcal_mol=0.00000000 boltzmann_weight=0.5000000872
C    1.5636588132 -0.5645736577  2.0030702026
C    2.6185277827 -0.4667012193  0.8855939444
C    3.9111444478  0.0777860453  1.5347084907
C    2.8908407669 -1.8730359256  0.3354537762
P    2.0241079729  0.7765245740 -0.4027270103
C    3.3255276657  0.6074582909 -1.7146891705
O    3.0226469335 -0.3999292386 -2.6978698043
C    1.6691308003 -0.6534926799 -2.6137127639
C    1.0715118225 -1.3892761658 -3.6273528939
C   -0.3008016823 -1.6014750130 -3.5804532593
C   -1.0534962239 -1.0750064450 -2.5244875574
C   -0.4553286690 -0.3469114537 -1.4700601502
C   -1.3342994158  0.2075614094 -0.4073320511
C   -1.9024643118 -0.6681729361  0.5791259664
C   -1.6765769036 -2.0693236352  0.6263795427
C   -2.2442885633 -2.8843711421  1.6086982112
C   -3.0582563451 -2.3245239059  2.5806983505
C   -3.3010380715 -0.9531751264  2.5666271057
C   -2.7366948955 -0.1235557347  1.5812280433
C   -3.0049781642  1.2493319977  1.5945657598
C   -2.4873873720  2.1138479667  0.6239895812
C   -2.8092730904  3.4821603668  0.6676636519
C   -2.3315498469  4.3662429244 -0.2965096843
C   -1.5286651502  3.8906006109 -1.3212173533
C   -1.1998355912  2.5337242074 -1.3721433222
C   -1.6547708452  1.6066288417 -0.3991503254
C    0.9361614038 -0.1577143519 -1.5156509041
H    0.6474144260 -1.0331825860  1.6454536535
H    1.9272858570 -1.1791190062  2.8354333641
H    1.3017861134  0.4184086211  2.4123506694
H    4.2377489796 -0.5696638987  2.3576074733
H    3.7664713568  1.0827277152  1.9496203671
H    4.7434429071  0.1293891170  0.8255295788
H    3.6660090455 -1.8728837160 -0.4376151181
H    3.2397767087 -2.5399826677  1.1332843775
H    1.9906847551 -2.3321403197 -0.0871948084
H    3.3972865836  1.5620525890 -2.2499883726
H    4.3179821506  0.3997429953 -1.3084717463
H    1.6647058557 -1.7718390968 -4.4517338860
H   -0.7936318868 -2.1605584593 -4.3716300424
H   -2.1323030094 -1.2304972536 -2.5238744521
H   -1.0303889923 -2.5478210848 -0.1068653573
H   -2.0427282949 -3.9521525685  1.6110527228
H   -3.5029073094 -2.9498497356  3.3498631865
H   -3.9423310149 -0.5318540786  3.3383795524
H   -3.6463908131  1.6553148067  2.3757514853
H   -3.4456050935  3.8724060689  1.4594378805
H   -2.5910660504  5.4200150897 -0.2480812382
H   -1.1540281637  4.5679237233 -2.0837806777
H   -0.5727673780  2.2029351411 -2.1974051268
