50
SIG-NIHDA-724 | MMFF94/ETKDGv3 ensemble | attach_idx=4 axis_idx=5 relative_energy_kcal_mol=0.00000021 boltzmann_weight=0.4999999128
C    2.6553521533  1.3074857367  1.7998054068
C    2.7213381436  0.5260559231  0.4808593095
C    2.3350177361 -0.9399291770  0.7505530901
C    4.1811082776  0.5196705355 -0.0267691905
P    1.6131107513  1.2037836800 -0.8870717556
C    2.1138576591  2.9902286559 -0.9241162896
O    1.3462489196  3.8206073435 -0.0327876050
C    0.1952965768  3.1258148968  0.2769793516
C   -0.8375216922  3.8070287948  0.9056475071
C   -2.0217767147  3.1303841059  1.1705398296
C   -2.1560957564  1.7867565434  0.8025546776
C   -1.1033128615  1.0713836370  0.1864177690
C   -1.3440940803 -0.3424566142 -0.2040920171
C   -1.5820533046 -0.6760416190 -1.5796881584
C   -1.6282885697  0.2733959223 -2.6330739036
C   -1.8540546343 -0.0961095178 -3.9613538993
C   -2.0486684026 -1.4305961038 -4.2809757540
C   -2.0254638526 -2.3886606409 -3.2705185951
C   -1.8025894671 -2.0273904498 -1.9297694762
C   -1.8106265592 -3.0126478781 -0.9365367762
C   -1.6201227738 -2.7029849230  0.4143136636
C   -1.6609362371 -3.7279441073  1.3763726779
C   -1.4794576924 -3.4545461261  2.7299099793
C   -1.2520137840 -2.1500773674  3.1390410988
C   -1.2071668593 -1.1243740496  2.1916909578
C   -1.3890471833 -1.3645069288  0.8039799332
C    0.0977319749  1.7589639283 -0.0561532519
H    3.3276889971  0.8658625382  2.5454918091
H    2.9604948211  2.3518666314  1.6786474532
H    1.6507715236  1.2962829482  2.2361466071
H    1.3475727278 -1.0140901423  1.2049250301
H    2.3302838168 -1.5420710969 -0.1658258883
H    3.0384357806 -1.4108905726  1.4477752966
H    4.8465599168  0.0431493155  0.7033904711
H    4.2824732120 -0.0335424583 -0.9684000888
H    4.5685100054  1.5298781957 -0.1932755764
H    1.9443558440  3.3717620308 -1.9383358241
H    3.1729441057  3.1422498190 -0.7042356387
H   -0.7270062688  4.8551767794  1.1645090565
H   -2.8505790089  3.6475009961  1.6470840671
H   -3.1042681707  1.2848895702  0.9951674477
H   -1.4872043809  1.3322886007 -2.4268298472
H   -1.8758146055  0.6627696721 -4.7386870166
H   -2.2233214303 -1.7272620779 -5.3113224461
H   -2.1891861379 -3.4302849633 -3.5394636822
H   -1.9834690768 -4.0494759931 -1.2221898921
H   -1.8378021214 -4.7584179978  1.0743587957
H   -1.5143172149 -4.2593261336  3.4589357898
H   -1.1039062235 -1.9236979415  4.1914708608
H   -1.0089878867 -0.1179119193  2.5549046363
