55
SIG-NIHDA-1058 | MMFF94/ETKDGv3 ensemble | attach_idx=16 axis_idx=15 relative_energy_kcal_mol=0.00000000 boltzmann_weight=0.6103908947
C    3.7927817679 -0.9545823581  2.9976877952
O    3.0198364077 -0.1830072885  2.0897343069
C    3.1741225701 -0.4270532781  0.7450886305
C    4.1252583675 -1.3110418609  0.2206658854
C    4.2401176478 -1.4906417429 -1.1568893899
C    3.4122958672 -0.7855865308 -2.0254171045
C    2.4460335341  0.0902977280 -1.5194987221
O    1.6587496318  0.8589834698 -2.3457036845
C    1.2121202040  0.2102202652 -3.5312384137
C    2.3058977478  0.2812783218 -0.1235687373
C    1.2916916540  1.2215239423  0.4101052294
C    1.7241256902  2.4385108265  0.9816651122
C    0.8190574688  3.4010069131  1.4459060383
C   -0.5484882333  3.1820741849  1.3291126263
C   -0.9881585538  1.9948790282  0.7616210647
C   -0.0922334074  0.9946965778  0.3397821698
P   -1.0004495671 -0.4284381920 -0.3155172436
C   -1.2464230723 -1.5646213360  1.1718257061
C   -1.6572373210 -0.8546947435  2.4692137026
C   -2.3301260244 -2.6022654933  0.8027010490
C    0.0617626197 -2.3358654089  1.4302998877
C   -2.5445301902  0.6442662775 -0.2392853389
C   -2.9721371836  1.1354460467 -1.6520709453
C   -4.0999731392  2.1737061909 -1.5579098186
C   -3.4359540562 -0.0149484920 -2.5551680357
O   -2.3450364120  1.7981131116  0.6143708899
H    3.5869708750 -2.0241395074  2.8847371059
H    4.8606147662 -0.7408519656  2.8857110086
H    3.5016024463 -0.6664623077  4.0123891587
H    4.8023777370 -1.8681307875  0.8591827900
H    4.9910219136 -2.1685933268 -1.5547812087
H    3.5537029188 -0.9112042707 -3.0938393409
H    1.9877261259  0.2444190860 -4.3024820549
H    0.3444441226  0.7615799243 -3.9064032093
H    0.8959077815 -0.8216286386 -3.3417852509
H    2.7908941695  2.6438716429  1.0568247511
H    1.1886261398  4.3260277337  1.8796927581
H   -1.2610420743  3.9290766480  1.6623885916
H   -2.6090623315 -0.3234920991  2.3721650394
H   -0.9011145025 -0.1369102235  2.8044190573
H   -1.7841286229 -1.5799058889  3.2824527142
H   -2.4634407135 -3.3328707239  1.6096137603
H   -2.0653297425 -3.1624275719 -0.1024407281
H   -3.3062874363 -2.1369429555  0.6286628146
H    0.8438257464 -1.6749313381  1.8099555690
H   -0.0849820989 -3.1160049591  2.1869929823
H    0.4404474272 -2.8255552551  0.5253763467
H   -3.3741318888  0.0740348890  0.1902727769
H   -2.1233060975  1.6349520739 -2.1386596958
H   -4.4206435659  2.4915417753 -2.5560004013
H   -3.7731161886  3.0713373032 -1.0233399275
H   -4.9717342000  1.7634579957 -1.0369390962
H   -3.7846552473  0.3672946734 -3.5209117294
H   -2.6268726423 -0.7204742095 -2.7651536494
H   -4.2614188351 -0.5693238756 -2.0956135919
