55
SIG-NIHDA-1058 | MMFF94/ETKDGv3 ensemble | attach_idx=16 axis_idx=15 relative_energy_kcal_mol=0.26599945 boltzmann_weight=0.3896091053
C   -4.1036238840  1.5838888094 -2.0405021827
O   -3.2248729435  1.2511212961 -0.9755427329
C   -3.1027987735 -0.0753811466 -0.6323657364
C   -3.8738894831 -1.0965209518 -1.1989527513
C   -3.7034873328 -2.4172819907 -0.7904901531
C   -2.7712627927 -2.7317084050  0.1950872709
C   -1.9862968660 -1.7274343486  0.7724790013
O   -1.0967785880 -1.9645338139  1.7943299890
C   -0.6311557831 -3.2981285501  1.9484674897
C   -2.1302901564 -0.3803940653  0.3549259058
C   -1.3052506156  0.6924138787  0.9626571964
C   -1.9301084877  1.6185676852  1.8279344836
C   -1.2090496836  2.6228475380  2.4843096521
C    0.1662658055  2.7145406881  2.3109042042
C    0.7963603186  1.8078062033  1.4698864748
C    0.0793686839  0.8229972022  0.7630365528
P    1.2042508810 -0.1691617721 -0.2545925334
C    1.1721060653  0.6592248012 -1.9520210284
C    2.4064733162  0.1768544199 -2.7471322069
C    1.1639669564  2.1942085805 -1.9171146789
C   -0.0761367545  0.1809459640 -2.7174518054
C    2.6153617686  0.7307904708  0.5850161228
C    3.4911614833 -0.1587105057  1.5065875320
C    2.7543248960 -0.7427021306  2.7172619990
C    4.2189106589 -1.2672964847  0.7400502269
O    2.1684665921  1.8773425377  1.3483831199
H   -3.8090257919  1.0838757927 -2.9690797872
H   -5.1422769314  1.3575001064 -1.7789059024
H   -4.0315118387  2.6628703944 -2.2078659919
H   -4.6227811514 -0.8958482334 -1.9573854947
H   -4.3115749023 -3.2035656527 -1.2309090032
H   -2.6934806052 -3.7669696844  0.5093138545
H   -0.2583687838 -3.7063657026  1.0029086516
H    0.2034251934 -3.2817293939  2.6557974470
H   -1.4116485270 -3.9361284729  2.3748086596
H   -3.0031172351  1.5481837886  2.0000392212
H   -1.7239788616  3.3164257518  3.1431223092
H    0.7424091860  3.4705744929  2.8337985941
H    3.3478914075  0.5065937225 -2.2956252905
H    2.4408186324 -0.9170737052 -2.8198266073
H    2.3904290239  0.5703479980 -3.7706961400
H    0.2767952383  2.5902719645 -1.4114034400
H    1.1548144682  2.6033343395 -2.9348499407
H    2.0469256112  2.6074995679 -1.4201574684
H   -0.0472419114  0.5122601115 -3.7625618175
H   -0.1663770683 -0.9116762694 -2.7232993235
H   -0.9892323926  0.5939933104 -2.2859887258
H    3.2829787956  1.1334443794 -0.1826257108
H    4.2661450993  0.5010101051  1.9230723118
H    3.4548472421 -1.2799501698  3.3663711295
H    2.2923836424  0.0438865748  3.3215346708
H    1.9762458738 -1.4511767989  2.4195400842
H    3.5304134832 -2.0375722906  0.3787518489
H    4.9528396383 -1.7606134342  1.3868012634
H    4.7592381838 -0.8576985029 -0.1198308138
