49
SIG-NIHDA-1057 | MMFF94/ETKDGv3 ensemble | attach_idx=16 axis_idx=15 relative_energy_kcal_mol=0.00000000 boltzmann_weight=1.0000000000
C    1.6352461896  2.6862168745 -3.0076521816
O    1.5812104432  1.5233496926 -2.1940345303
C    1.9951119204  1.6329306097 -0.8869816346
C    2.5630172570  2.7936273294 -0.3475374272
C    2.9800740160  2.8242994084  0.9820124974
C    2.8419262877  1.6956817171  1.7846357896
C    2.2640270109  0.5312130034  1.2677569650
O    2.1752342795 -0.6282534351  2.0030712901
C    1.9025406714 -0.4540011411  3.3886960992
C    1.8232606687  0.4816616533 -0.0770522516
C    1.2246607326 -0.7573521615 -0.6291751681
C    1.9647914296 -1.5101049614 -1.5679858359
C    1.4919606486 -2.7232546469 -2.0835459603
C    0.2715618285 -3.2315234150 -1.6551018988
C   -0.4638981158 -2.5079611588 -0.7273787026
C   -0.0272193157 -1.2600742378 -0.2385822448
P   -1.2399340923 -0.5776162349  0.9263125384
C   -2.3666373042  0.4996490068 -0.1411818990
C   -1.6680540702  1.8472600708 -0.4020710706
C   -2.7581919994 -0.1165491871 -1.4916441179
C   -3.6499618944  0.7944649137  0.6672782123
C   -2.1010256877 -2.2327550101  0.8371087062
C   -1.8562538453 -3.0290881075  2.1194944110
O   -1.6551087876 -3.0391759649 -0.2749734945
H    2.6691439131  3.0125670672 -3.1594855984
H    1.2219570932  2.4275445472 -3.9872964439
H    1.0209700939  3.4911019671 -2.5906512783
H    2.7055710503  3.6904080534 -0.9408105590
H    3.4320278229  3.7257969122  1.3880428004
H    3.2161339725  1.7356047622  2.8022641698
H    2.8200007774 -0.2101701087  3.9331311668
H    1.5281432446 -1.4060984624  3.7771195943
H    1.1312230050  0.3043826739  3.5631166274
H    2.9371815770 -1.1460658974 -1.8964453805
H    2.0901916865 -3.2744764167 -2.8037571067
H   -0.0954655070 -4.1822238791 -2.0269697550
H   -1.3092899096  2.3146730140  0.5225027144
H   -2.3512277277  2.5572907903 -0.8836351992
H   -0.8161878642  1.7290392984 -1.0744891695
H   -3.4165592773  0.5612753741 -2.0488184162
H   -3.3017248474 -1.0597382500 -1.3791320474
H   -1.8870827383 -0.3018858856 -2.1289847583
H   -4.3103455278  1.4764666183  0.1181978179
H   -3.4238493885  1.2668378437  1.6310514287
H   -4.2279619067 -0.1130067023  0.8720427646
H   -3.1812436094 -2.1005920791  0.7290838592
H   -2.3630595038 -3.9990452995  2.0631522039
H   -2.2258064412 -2.4980743346  3.0031152497
H   -0.7910782585 -3.2442562241  2.2661872236
