43
SIG-NIHDA-401 | MMFF94/ETKDGv3 ensemble | attach_idx=14 axis_idx=10 relative_energy_kcal_mol=0.01007589 boltzmann_weight=0.2582886629
C    3.8988284559 -2.4688621841 -2.5612047344
C    3.3740555999 -1.4223126567 -1.6220645549
C    3.5850220197 -0.0619528057 -1.8897766502
C    3.0716964988  0.9162113135 -1.0363228092
C    2.3361892879  0.5285197833  0.0846744731
S    1.6499181409  1.7529784577  1.1675693764
O    1.8247901821  3.0591170269  0.5666483366
O    2.1256439204  1.4721389337  2.5048509124
N   -0.0027633193  1.3942056099  1.1167731264
C   -0.6910042453  1.5078371305 -0.2122562668
C   -2.0596319306  2.1245427275  0.1391698582
C   -1.6183186625  3.1495199792  1.1887562558
C   -0.8679832347  2.1550088319  2.0812081061
C   -1.9332768454  1.1741829201  2.6260847610
P   -3.1525012561  0.9632025756  1.2027036734
C   -2.8325621217 -0.6557326040  0.4475742470
C   -3.2160960757 -0.8605087030 -0.8895467347
C   -2.9973736839 -2.0856458717 -1.5256385895
C   -2.4055370268 -3.1343493378 -0.8295411490
C   -2.0463757018 -2.9602495577  0.5036835636
C   -2.2672909386 -1.7334337235  1.1389656946
C    2.1084749361 -0.8223588840  0.3599937320
C    2.6221701778 -1.7942566636 -0.4988341755
H    3.1565431139 -2.6809790291 -3.3367796042
H    4.8257388599 -2.1351332191 -3.0393683523
H    4.1261319498 -3.3961715665 -2.0248969335
H    4.1540122763  0.2424736036 -2.7660374862
H    3.2479426950  1.9672900155 -1.2525697270
H   -0.1479565090  2.1880416724 -0.8781163300
H   -0.7439507366  0.5317287286 -0.6968609149
H   -2.5999114260  2.5336212364 -0.7166827875
H   -0.9510519617  3.9071847795  0.7619299656
H   -2.4407681415  3.6577566905  1.7045525761
H   -0.3016222807  2.6261206976  2.8882980682
H   -2.4791534792  1.6438872037  3.4514635493
H   -1.4874440480  0.2472872772  2.9889958314
H   -3.6949892989 -0.0634604415 -1.4550990390
H   -3.2966677193 -2.2200945964 -2.5616897536
H   -2.2374445716 -4.0893571666 -1.3198417529
H   -1.6013623173 -3.7826385514  1.0579738315
H   -1.9955810793 -1.6520268411  2.1865038947
H    1.5279699817 -1.1173884104  1.2313278128
H    2.4334905154 -2.8445481444 -0.2865733010
