43
SIG-NIHDA-401 | MMFF94/ETKDGv3 ensemble | attach_idx=14 axis_idx=10 relative_energy_kcal_mol=0.00000000 boltzmann_weight=0.2627187206
C   -0.3981116266  3.9061734016  3.5480193561
C    0.3559401432  2.9516992956  2.6687875954
C    1.3403153136  2.1148679660  3.2141910933
C    2.0658238638  1.2473224474  2.3958619019
C    1.8110903742  1.2277550588  1.0237791515
S    2.7014128711  0.1166505216 -0.0323881545
O    3.3210746396  0.9047444520 -1.0757012962
O    3.4799542980 -0.7865501963  0.7896648713
N    1.4566061096 -0.7893250639 -0.7339863573
C    0.5974407370 -1.6064259102  0.1864394577
C    0.3667548194 -2.9139196735 -0.5973222938
C    1.7673649308 -3.1121969433 -1.1854968133
C    1.8688130723 -1.7270364202 -1.8332377585
C    0.7723467320 -1.6783448785 -2.9237424723
P   -0.6640694900 -2.6577826387 -2.1928389702
C   -1.9163414253 -1.4627306751 -1.6478277858
C   -2.0634142366 -0.1877801572 -2.2062608896
C   -3.0504226924  0.6904549168 -1.7458528155
C   -3.9192221582  0.2994984869 -0.7313882980
C   -3.8100032248 -0.9747088397 -0.1845249362
C   -2.8225590811 -1.8501002487 -0.6450108085
C    0.8467612419  2.0685824647  0.4620830682
C    0.1237346861  2.9310222868  1.2863927523
H    0.1371285179  4.8585245620  3.6114188670
H   -1.4029822906  4.0897014488  3.1533488291
H   -0.5156542430  3.4976412469  4.5572124559
H    1.5471874864  2.1357570107  4.2823809030
H    2.8231799432  0.6005829834  2.8325920720
H    1.1265664369 -1.8323475961  1.1191432746
H   -0.3135777837 -1.0614907725  0.4385106606
H   -0.0074404135 -3.7403393848  0.0099189388
H    1.8476277368 -3.9333755864 -1.9066065779
H    2.5202864405 -3.2587483255 -0.4024852808
H    2.8566794751 -1.5023338869 -2.2427988954
H    0.5293388556 -0.6552150663 -3.2131662593
H    1.1125077099 -2.2197735404 -3.8131230184
H   -1.4257884141  0.1505336017 -3.0166671991
H   -3.1438476573  1.6781420130 -2.1900755331
H   -4.6880437940  0.9813551624 -0.3782997609
H   -4.4963616699 -1.2930672906  0.5956103097
H   -2.7712661166 -2.8458726898 -0.2088071980
H    0.6563923622  2.0513385998 -0.6087593319
H   -0.6232224795  3.5871178618  0.8443970518
