43
-65.59234216
C   -6.080508110500  0.604397172300  1.853996225900
C   -4.874162480300  0.386450604000  0.996074386300
C   -4.350123207900  1.440968735400  0.249640514600
C   -3.237149027400  1.256988030600 -0.549503257600
C   -2.642350065500  0.009463703700 -0.608189913100
S   -1.174381539800 -0.218094962700 -1.611089934800
O   -1.053049377700 -1.617481497300 -1.932120635400
O   -1.210574201900  0.725614055800 -2.700681863200
N    0.140590664500  0.176738466100 -0.679688967300
C    0.394649802300 -0.644349732400  0.498470194400
C    0.784285972000  0.372689855600  1.573912415500
C   -0.105412156100  1.558641098900  1.197619106200
C    0.291797503200  1.568809727300 -0.276816130500
C    1.784904024000  1.906870589800 -0.302094649900
P    2.486755617500  1.130726606600  1.264143073000
C    3.447521568900 -0.289229039000  0.623666520300
C    3.463976352200 -1.482161196800  1.345072708700
C    4.260079956600 -2.536563858400  0.938101793400
C    5.068835405800 -2.405805820000 -0.179707864900
C    5.089896947700 -1.209392806000 -0.876844031900
C    4.293343284400 -0.152633523300 -0.472176224300
C   -3.153663229000 -1.054775282700  0.108793135000
C   -4.266279102300 -0.861650014500  0.911753298300
H   -5.916313643600  1.438287402500  2.534073178500
H   -6.940032215000  0.850328464000  1.231649484700
H   -6.314618010700 -0.283682052100  2.433951888300
H   -4.821226010500  2.411505916200  0.295834473600
H   -2.829642890600  2.059052301200 -1.144544621600
H   -0.513188587000 -1.188172307300  0.782956201100
H    1.173192509300 -1.376280111700  0.274120147600
H    0.659440554600 -0.003088979100  2.588645724500
H    0.165395176200  2.481960465800  1.708820219000
H   -1.165008853400  1.349188379000  1.345735201600
H   -0.293400494100  2.197273759900 -0.947433146700
H    2.251977630600  1.516525413300 -1.205523397600
H    1.934872036300  2.988339117800 -0.267681460300
H    2.844036870500 -1.581591538300  2.225816934300
H    4.253416938100 -3.462255439800  1.495658994700
H    5.689413472200 -3.230214400600 -0.499224157700
H    5.733832757500 -1.096377915900 -1.737404824700
H    4.335588390800  0.783682215100 -1.010719777800
H   -2.688482710700 -2.023579541600  0.010338715500
H   -4.666782442900 -1.692478286300  1.473352430400
