43
-65.59236475
C   -6.068908632600  0.510257977600  1.874556577800
C   -4.860486195500  0.344423655100  1.008057903100
C   -4.336341416500  1.420951575800  0.297967359100
C   -3.224732537000  1.260577070600 -0.511211896300
C   -2.634643026600  0.015226914500 -0.614569004500
S   -1.166359228900 -0.183031010900 -1.623110500200
O   -1.034876378000 -1.576187545100 -1.966313885900
O   -1.209523995700  0.777486132400 -2.697753954400
N    0.145098917400  0.206027925500 -0.684634625300
C    0.381293736200 -0.611239132600  0.499742885900
C    0.782682436000  0.407139619800  1.569653428900
C   -0.089456404300  1.602871296900  1.183448084800
C    0.312357825300  1.598545343100 -0.289696621700
C    1.809947429200  1.916723028500 -0.311880831200
P    2.496992084400  1.138188451400  1.259767575700
C    3.434724974600 -0.301869496800  0.629808373900
C    3.430772067600 -1.488739865400  1.361365937100
C    4.206819863300 -2.560903383500  0.962323067100
C    5.015909556300 -2.454393793600 -0.157787339000
C    5.057769835700 -1.264428174000 -0.864919226500
C    4.281170281000 -0.189902592700 -0.468223365500
C   -3.147390543100 -1.072711473900  0.067386951000
C   -4.256008374700 -0.903839595600  0.878246022300
H   -6.944703591300  0.109596852800  1.364176751700
H   -5.950640091500 -0.035504482700  2.807879512900
H   -6.251530284100  1.558402383400  2.094139346500
H   -4.800941209700  2.392396984600  0.377707951900
H   -2.816049845100  2.082620885900 -1.077523620300
H   -0.536631991400 -1.138009074900  0.784976760800
H    1.148641795200 -1.357249833900  0.283666597300
H    0.649745026000  0.039710582800  2.586407484300
H    0.192489745500  2.525578284400  1.689688144300
H   -1.152237059100  1.408837175300  1.329776267700
H   -0.262243773600  2.230077357900 -0.966630517500
H    2.274650058400  1.516886154100 -1.212375505300
H    1.974119388500  2.996263186100 -0.281138574900
H    2.810324896100 -1.569413823500  2.243675955800
H    4.184142648900 -3.481525421400  1.527805199900
H    5.620557741400 -3.292788654600 -0.471387266700
H    5.702162315600 -1.170518368400 -1.727406064200
H    4.339693970300  0.740830312300 -1.014820248900
H   -2.682840983500 -2.037782644900 -0.065095347700
H   -4.660009597100 -1.750189724400  1.413615055200
