43
-65.59265567
C   -4.318376377600 -3.265495437900  0.770296939500
C   -3.610991076800 -2.006779217600  0.377076862400
C   -3.908330820100 -0.794718004400  0.990857102200
C   -3.240506602500  0.363867930100  0.628862497200
C   -2.274579433700  0.306665726500 -0.355139919800
S   -1.371704902900  1.770140739400 -0.825653464000
O   -1.499292298800  2.002301630100 -2.243142602600
O   -1.742553556800  2.864844401100  0.047614905100
N    0.194166032900  1.249539469300 -0.547078879900
C    0.539738580600  1.163914801000  0.869810502200
C    1.942701483600  1.767097670200  0.937718396200
C    1.812894319900  2.891174987300 -0.090509659100
C    1.262608040900  2.003614507500 -1.203353667300
C    2.385883793300  1.025808792000 -1.547465171800
P    3.233537122300  0.669812106600  0.096197015500
C    2.628110771600 -1.009945394700  0.507292582500
C    2.542170172600 -2.015482241200 -0.449544156000
C    2.154396680300 -3.294273926000 -0.088399835200
C    1.872862708600 -3.591239945900  1.234268855200
C    2.003535548600 -2.607791661400  2.202199926800
C    2.389814925800 -1.329800892700  1.843835083800
C   -1.961716838200 -0.885413288700 -0.982125176600
C   -2.629144628300 -2.037744298500 -0.612686252200
H   -3.630286186300 -3.930519444600  1.291147908300
H   -5.158030102000 -3.053973931900  1.426179960000
H   -4.680820745500 -3.789236340700 -0.111895738400
H   -4.667083839000 -0.753346977500  1.758103229600
H   -3.454280801500  1.313812190600  1.094089812100
H   -0.167192097900  1.765608983100  1.455214702700
H    0.480040999700  0.125935094700  1.203057619000
H    2.232376428800  2.079996993900  1.940338806600
H    2.760423316000  3.359481144100 -0.354807070200
H    1.092706023700  3.650466586900  0.218106359300
H    0.850014237400  2.512870476400 -2.075253409400
H    1.991506875500  0.126791911100 -2.018066555500
H    3.102282805500  1.492141248600 -2.227666883700
H    2.784333087900 -1.805251674000 -1.481552178900
H    2.077966565100 -4.063496412900 -0.843618535800
H    1.567494176600 -4.588979124900  1.513483876700
H    1.807725410600 -2.839204737800  3.239463467900
H    2.504110182600 -0.566397349800  2.601884802100
H   -1.204741454000 -0.887179160200 -1.749518713400
H   -2.390278337000 -2.973898446400 -1.094922717500
