43
-65.59079768
C   -5.459157888300 -1.848882056900 -1.588418598100
C   -4.399716905300 -1.100500568100 -0.842861566100
C   -3.335736590400 -1.780328540900 -0.253092886800
C   -2.364870868600 -1.094743648700  0.453925222500
C   -2.457752978700  0.279406574800  0.570552456100
S   -1.164665856600  1.134831121900  1.450742387100
O   -1.455022535700  2.552569215700  1.489882156700
O   -0.922143092200  0.491967722000  2.717474354400
N    0.151878807300  0.793904741000  0.463689123800
C    1.456346029000  0.991299101200  1.104014484900
C    2.246620880100  1.787971661200  0.070590206400
C    1.153010559700  2.705632276300 -0.473353204200
C    0.162233102300  1.583192419400 -0.769505197900
C    0.811945445300  0.757158371000 -1.878222442200
P    2.647327598200  0.751097778100 -1.465170420800
C    2.944140553400 -0.906528166400 -0.726312721100
C    1.967576926500 -1.828576981300 -0.363682856900
C    2.332207560500 -3.056040440300  0.161784854500
C    3.668880400100 -3.379263168300  0.330590288400
C    4.648132426100 -2.467972371700 -0.029429704400
C    4.286483348000 -1.243355147600 -0.560357953000
C   -3.504375073600  0.976242471900 -0.000715000300
C   -4.473391867700  0.282822070600 -0.705684217800
H   -5.914190113100 -1.222487472100 -2.351039157500
H   -5.049585646800 -2.741398800900 -2.054130904200
H   -6.242142526400 -2.159825713600 -0.896348359300
H   -3.270389030900 -2.853846746700 -0.349752493400
H   -1.536853447600 -1.599577521000  0.925599303100
H    1.329960582800  1.561874887400  2.032252272300
H    1.894158332200  0.024022082100  1.358378912600
H    3.124019088600  2.282499582100  0.486004126900
H    1.443750053300  3.258573824400 -1.365737646600
H    0.769255905200  3.390165544100  0.284300085600
H   -0.855867119700  1.899437079600 -1.001919593900
H    0.389801232500 -0.242576296900 -1.961879905500
H    0.681698593100  1.260562842200 -2.839696992300
H    0.920793581600 -1.586069250000 -0.468547926200
H    1.566853988100 -3.765054965400  0.444326868400
H    3.945918490800 -4.339540910100  0.740702825800
H    5.692257990900 -2.714381101700  0.098950857600
H    5.046889404100 -0.531095965300 -0.852522535800
H   -3.543236068200  2.048280865500  0.118716943600
H   -5.294381591300  0.821987746300 -1.154334101600
