43
-65.59242512
C   -4.200417926300 -3.459707075300  0.025290840600
C   -3.524412385400 -2.127608206000 -0.065340944900
C   -3.308835313700 -1.351595375100  1.068788505500
C   -2.685754364200 -0.118231320100  0.974129539200
C   -2.277589691700  0.338898759200 -0.262627230400
S   -1.410351001700  1.889864481400 -0.399689155200
O   -1.631925700500  2.451759903500 -1.709810331400
O   -1.732240197100  2.723450858200  0.738648424000
N    0.174819058000  1.349350176800 -0.329918020200
C    0.741969421700  1.255613705000  1.013955653300
C    2.172604826500  1.755924880300  0.833214547800
C    1.949509856400  2.882784087500 -0.174672967900
C    1.162444667500  2.030563401000 -1.167416557200
C    2.162450443500  0.994739305200 -1.682228256000
P    3.221403677200  0.555496446700 -0.191884876400
C    2.572896057000 -1.072267596500  0.368272032400
C    3.377612183800 -1.735790263800  1.293209319500
C    3.013012464700 -2.974091672500  1.789031740000
C    1.841915050200 -3.572488223400  1.353809907100
C    1.040299428500 -2.924554103000  0.428063157200
C    1.399466062500 -1.681940032100 -0.064774610300
C   -2.476949768200 -0.414842960700 -1.404268851500
C   -3.102528264800 -1.643360207500 -1.302805396900
H   -5.136025331700 -3.442524005800 -0.532058662200
H   -3.571864143400 -4.234050132200 -0.411113702700
H   -4.415044074500 -3.720639176100  1.057567441400
H   -3.630993614600 -1.712068089600  2.034319294600
H   -2.520613013500  0.502093548900  1.841060601000
H    0.181642948800  1.911475939700  1.691899977600
H    0.672736173500  0.229589938000  1.381960284200
H    2.652046597000  2.039578861700  1.769641875300
H    2.868955032800  3.283168891900 -0.599902395900
H    1.346512636100  3.692349705400  0.239758905800
H    0.642148959200  2.565305046800 -1.962546216600
H    1.678398777600  0.128772174500 -2.130562173200
H    2.809198795000  1.448163899100 -2.438024829900
H    4.296178981200 -1.267174825400  1.620970377100
H    3.643731232000 -3.474843479900  2.509299444400
H    1.555076922800 -4.542324630200  1.733291230200
H    0.127412367800 -3.389900005500  0.086288915900
H    0.750328480500 -1.184782594300 -0.770270260700
H   -2.149326081900 -0.017294745000 -2.352049485200
H   -3.266798975000 -2.236512377100 -2.190231170900
