43
-65.59240122
C   -4.214694326500 -3.482280378100 -0.112686921800
C   -3.542183476600 -2.146352344100 -0.060795058200
C   -3.193880656800 -1.494725058400 -1.243129827600
C   -2.569066178100 -0.262023177000 -1.212335352100
C   -2.295650258700  0.327410176700  0.007996205300
S   -1.447469759200  1.894874455300  0.030516154300
O   -1.788782774900  2.643154798800 -1.154701456400
O   -1.669503350700  2.542982894700  1.305409215000
N    0.140567304100  1.380694078100 -0.124318843800
C    0.818552057400  1.077156621700  1.134750073200
C    2.223510323800  1.636186634000  0.927472629800
C    1.904555130600  2.910830181400  0.146950128900
C    1.047713773600  2.218312451300 -0.910098302800
C    2.013722012200  1.310632212900 -1.672064116200
P    3.197218079200  0.652835626800 -0.367444494500
C    2.616036007000 -1.063700607500 -0.051382997300
C    1.410963121300 -1.613236220500 -0.478366814900
C    1.109851038100 -2.933340634900 -0.191118665100
C    2.001492052600 -3.719345072600  0.520694303400
C    3.203958525800 -3.181104486500  0.948775897600
C    3.509912063500 -1.864206857600  0.658118666100
C   -2.627251888600 -0.298664217100  1.192541055800
C   -3.249944804800 -1.535278051200  1.154158231100
H   -5.096791822800 -3.436947842700 -0.748390753000
H   -3.540508748500 -4.224898125800 -0.537083614600
H   -4.511757547400 -3.809669763600  0.879257253400
H   -3.416611046200 -1.959538553600 -2.192173086400
H   -2.300594172400  0.264570081000 -2.114685177200
H    0.309654979900  1.596758406100  1.956198770100
H    0.791341846700  0.002690151700  1.328968847100
H    2.776134746100  1.770200050800  1.856940554300
H    2.780792622800  3.400426372300 -0.276180448300
H    1.328763557500  3.623321396300  0.739899073200
H    0.456884728100  2.865919833900 -1.558527658200
H    1.505017356000  0.520435790700 -2.221625663600
H    2.590075670500  1.902137117400 -2.388331993000
H    0.693896686600 -1.012074023300 -1.017573646300
H    0.171798847000 -3.350971061000 -0.526441397100
H    1.760165226500 -4.749408308400  0.738943147200
H    3.904672675200 -3.789068579800  1.502587101100
H    4.451848601700 -1.440445254100  0.980475413400
H   -2.405974543800  0.196548633200  2.125006818300
H   -3.514157138600 -2.026610262500  2.078698185000
