43
-65.59169015
C   -5.344848511700 -1.880611460100 -1.923812869400
C   -4.347500186900 -1.102874219800 -1.124194221900
C   -4.486032595800  0.271820896800 -0.957590393800
C   -3.574359915400  0.987963376100 -0.199926033900
C   -2.520376357600  0.322324980600  0.393583422600
S   -1.307712912500  1.203458926300  1.359144000300
O   -1.596213265900  2.622126125200  1.322854815100
O   -1.189886764100  0.604042219200  2.665197707800
N    0.085162110200  0.820675517500  0.506023869400
C    1.336436798700  0.868258514300  1.264718350200
C    2.268130520200  1.710062411700  0.391473064400
C    1.279950417300  2.703490019400 -0.218779777100
C    0.283942774300  1.645167398200 -0.683400734800
C    1.014613860700  0.803816707000 -1.729687453000
P    2.811859009800  0.783942402000 -1.163459199300
C    3.029058137300 -0.926470002000 -0.546171818400
C    3.853980828600 -1.143504968000  0.557001081000
C    4.119145712500 -2.428157916400  0.993375418700
C    3.583168370100 -3.514971735900  0.320544722000
C    2.796461679400 -3.309286779600 -0.800281236200
C    2.529722763600 -2.024103215400 -1.239547170100
C   -2.360998553700 -1.042791768200  0.244859490400
C   -3.274815420200 -1.750574795200 -0.513945890200
H   -6.100902122300 -2.297804661600 -1.258308460800
H   -5.846350110200 -1.243968983600 -2.647552273000
H   -4.865286583000 -2.706270332900 -2.443375851600
H   -5.312513898100  0.787077844000 -1.423935884300
H   -3.662863971700  2.054323636400 -0.058921388600
H    1.159460948500  1.342413208400  2.236747442400
H    1.691834529900 -0.149095437200  1.442847167900
H    3.097464082800  2.151469731100  0.942869024300
H    1.694275526000  3.285696772600 -1.041472037400
H    0.836933313600  3.367026800900  0.525014082700
H   -0.681865450400  2.020979126800 -1.023728286600
H    0.586891688000 -0.195760630100 -1.792580315500
H    0.953078275100  1.277160405800 -2.711973555300
H    4.282023501900 -0.296828944100  1.076813865900
H    4.748569712600 -2.583039886200  1.858075051100
H    3.788855901900 -4.518742358600  0.662623113800
H    2.393275841500 -4.154519832400 -1.339594802100
H    1.935606875000 -1.878200283200 -2.130286833600
H   -1.525073289300 -1.524022425100  0.727066148200
H   -3.157627288800 -2.817093097700 -0.635695303000
