43
-65.59254920
C   -4.532750438400 -3.334598191000  0.110730395900
C   -3.771227911300 -2.049388647300  0.025204113000
C   -2.881797588100 -1.829813142700 -1.025590851300
C   -2.189172407900 -0.637925557800 -1.127741288400
C   -2.385040359500  0.340867379200 -0.171256378100
S   -1.464832682200  1.860039476900 -0.320536994000
O   -1.690080816500  2.443614349100 -1.620032515600
O   -1.740129885400  2.703587683200  0.824480527600
N    0.106753133100  1.271882761000 -0.304027254800
C    0.574793941900  0.892171263500  1.027875637700
C    1.945522444600  1.562822094200  1.148356808300
C    1.703286116000  2.854037284900  0.366549035700
C    1.119111342500  2.166497957800 -0.864327860000
C    2.244677276400  1.308216110100 -1.443454389800
P    3.242635592800  0.740696529600  0.049398724400
C    2.803396310400 -1.031606745600  0.190244619800
C    2.685616730900 -1.597281973000  1.459490417400
C    2.451002652700 -2.951758797300  1.605450627900
C    2.353760232500 -3.764457624800  0.486958717600
C    2.510776739800 -3.217564140400 -0.775489246600
C    2.746011584300 -1.861730131600 -0.924393397100
C   -3.258686024100  0.147930212200  0.879889930500
C   -3.950982337600 -1.047982196300  0.974034211700
H   -4.936296913400 -3.484265269900  1.108188478300
H   -5.363482849500 -3.316101195100 -0.594756655300
H   -3.895802802000 -4.177059334900 -0.148025082600
H   -2.734852798400 -2.600267476900 -1.767715503200
H   -1.501478835800 -0.446067718600 -1.935452998500
H   -0.116205994500  1.289217918900  1.780993852500
H    0.603519813800 -0.196320824700  1.112428109800
H    2.273913013900  1.694187022300  2.178748728600
H    2.612653909200  3.413201725000  0.148144301200
H    0.971546063600  3.501363852400  0.852533369400
H    0.644143489400  2.812998595300 -1.603053949700
H    1.843372057800  0.474418037800 -2.017750242200
H    2.883370794700  1.908296082100 -2.095495256400
H    2.774206218300 -0.966100669400  2.333518373300
H    2.348874232400 -3.376050413700  2.594020743200
H    2.170121214400 -4.822757910800  0.600797177000
H    2.457413774700 -3.851019694700 -1.649401839900
H    2.892942605500 -1.451537996600 -1.913476086900
H   -3.383500951500  0.937212221200  1.605126421800
H   -4.637379721800 -1.202560434500  1.793189554000
