43
-65.59170312
C   -5.564825912800 -1.503435766100 -2.037888637600
C   -4.508480866600 -0.884341980000 -1.177855553300
C   -3.481775546400 -1.656072121700 -0.639642409600
C   -2.516939068300 -1.083614939100  0.170396124700
C   -2.580454591800  0.269624281100  0.442091100800
S   -1.311324357100  0.982236355200  1.471961232600
O   -1.543004843800  2.404800970700  1.613040673600
O   -1.189113961400  0.229365079400  2.695035917000
N    0.055513609500  0.652779146200  0.551445763600
C    1.322142177700  0.737736684900  1.283128991300
C    2.179706716900  1.688961959500  0.445422179100
C    1.116816776700  2.637159888400 -0.108462555000
C    0.189162118400  1.533020894900 -0.606831815000
C    0.963106130500  0.780077999500 -1.690027486500
P    2.768060223300  0.884469453500 -1.158067024200
C    3.143587251900 -0.826843700300 -0.626420149800
C    3.997577158200 -1.023087666800  0.458262298600
C    4.384099469800 -2.298607965800  0.825221441700
C    3.942194524500 -3.394063312900  0.100116569700
C    3.126062552100 -3.204661491200 -1.002516003100
C    2.737411634700 -1.928708694700 -1.372029581800
C   -3.589334622300  1.057375855500 -0.078252197500
C   -4.550696992400  0.477223473400 -0.886970850800
H   -5.807839454400 -0.854625125700 -2.876086323600
H   -5.244724613200 -2.470517020700 -2.415139046700
H   -6.474353232300 -1.647771788800 -1.454784780400
H   -3.438470587000 -2.713073652300 -0.855912534500
H   -1.715434459300 -1.662842026600  0.600431908700
H    1.137816291100  1.141299612200  2.285107979700
H    1.745390668700 -0.263349336100  1.391815516200
H    2.980954744900  2.162051769400  1.011761842600
H    1.478811743500  3.281068527800 -0.909728653600
H    0.639360269800  3.235037920600  0.668658234300
H   -0.802353924500  1.855832590300 -0.927610181600
H    0.613770522500 -0.248274409000 -1.773053544400
H    0.844624865500  1.273153412300 -2.657248977300
H    4.352118939700 -0.168447464800  1.018686951000
H    5.034915945500 -2.439083529900  1.676420422000
H    4.243344128700 -4.390778675000  0.387682391800
H    2.795302082800 -4.054821738800 -1.581872653500
H    2.120774097700 -1.791449283900 -2.248953925800
H   -3.603825495700  2.109721875900  0.161186785400
H   -5.342274878900  1.086419827900 -1.297309194400
