43
-65.59252557
C   -3.969791050000 -3.531537961900  0.164566742100
C   -3.339327958600 -2.185169075000 -0.006859437500
C   -3.309971406600 -1.284229858900  1.055175799300
C   -2.743591106100 -0.031107792000  0.904132289700
C   -2.206693341000  0.323904881100 -0.317963124900
S   -1.386077891400  1.893042196600 -0.517827724500
O   -1.565386786900  2.369937989300 -1.867312739100
O   -1.774673749900  2.783151107500  0.554982384900
N    0.202821372200  1.398429730500 -0.358201755400
C    0.700077220300  1.324215104500  1.012996076300
C    2.150134308900  1.779524169500  0.882372657000
C    1.995648011200  2.904258067200 -0.141040041400
C    1.229341763000  2.064385160300 -1.160299476600
C    2.231187945600  1.010862497500 -1.633946680500
P    3.197643971400  0.534704888800 -0.092995386800
C    2.452463739400 -1.065563749000  0.426535839200
C    3.184472274300 -1.773276921300  1.378676682100
C    2.740738850700 -2.996505519500  1.847029267400
C    1.561439046900 -3.534927131200  1.358633829800
C    0.831312769000 -2.842547394200  0.406319343600
C    1.271043200200 -1.616200781800 -0.060767626800
C   -2.222250464400 -0.551677960200 -1.386058116900
C   -2.791200179900 -1.803267203600 -1.228235257000
H   -5.054883768400 -3.436606065600  0.121560903200
H   -3.656871525700 -4.213394325800 -0.621383303400
H   -3.712051087100 -3.956836104000  1.131828210300
H   -3.733325018000 -1.568532286500  2.006996589300
H   -2.715873150200  0.682704325300  1.712522781500
H    0.127901169700  2.012911869700  1.647959207900
H    0.583902532600  0.310523293000  1.402900830700
H    2.603976506100  2.057008275800  1.833269294000
H    2.940791492400  3.279062263200 -0.531587607800
H    1.397716255000  3.731272013800  0.245028408600
H    0.747014346700  2.604904047100 -1.975511694800
H    1.753734276100  0.158249854000 -2.113752458300
H    2.926558439000  1.455377307900 -2.350820555600
H    4.109124735500 -1.351370465400  1.749880846800
H    3.316310914500 -3.531875002500  2.588320264600
H    1.213106241700 -4.492383548100  1.717529913600
H   -0.090372490000 -3.256087032100  0.023828771400
H    0.674428310900 -1.084433102100 -0.786817982200
H   -1.799126179100 -0.232675567200 -2.325747288000
H   -2.807885138100 -2.490806178900 -2.061026164800
