43
-65.59087489
C   -4.806323223000 -2.770171318900 -1.168715526600
C   -3.961146673000 -1.673374992900 -0.601407542800
C   -3.016714122600 -1.945688909900  0.385935287700
C   -2.216343663300 -0.938781869000  0.894562046900
C   -2.363690247600  0.349136323400  0.415670756000
S   -1.268708675700  1.609828396800  1.040781099700
O   -1.729291743500  2.906503539400  0.593304254500
O   -1.080249823900  1.431537961300  2.459343936600
N    0.152005806200  1.166185279800  0.271239069100
C    1.385981845000  1.194212388600  1.057190100800
C    2.409945751700  1.772274035700  0.085088127900
C    1.557482517000  2.811414145200 -0.640935736500
C    0.427690111400  1.846573941600 -0.992996479900
C    1.047085826200  0.845455580900 -1.967002587200
P    2.796097908700  0.571892862900 -1.330970706300
C    2.723931921200 -1.052767802500 -0.471983211700
C    1.574577447300 -1.784986823400 -0.191673926900
C    1.671810860200 -3.015483509100  0.435030740900
C    2.908587329000 -3.528719041300  0.790487383200
C    4.058127269600 -2.806187607800  0.515857084000
C    3.964643789000 -1.580928412000 -0.118213876900
C   -3.293321655600  0.645418205200 -0.561381428500
C   -4.090603137200 -0.367515576500 -1.066234545100
H   -5.770233416700 -2.388366417000 -1.494764802100
H   -4.307110277500 -3.206890393800 -2.034074928700
H   -4.962451177700 -3.558473512400 -0.437063615200
H   -2.910969971000 -2.953728713800  0.758424073300
H   -1.485247719600 -1.123954374200  1.665570681500
H    1.256172000900  1.838238692000  1.934773264900
H    1.625599178700  0.188281444200  1.408947353500
H    3.307335292800  2.147240428900  0.576058325900
H    2.036716792500  3.238656414800 -1.520927866600
H    1.218442561700  3.608162190500  0.022755387700
H   -0.490135468300  2.306824921800 -1.359666068800
H    0.473302354300 -0.076267335100 -2.046827021400
H    1.113373067800  1.289587905400 -2.963622428200
H    0.598924045100 -1.393488633200 -0.438924233600
H    0.774470573600 -3.578090166300  0.648857818600
H    2.975778389200 -4.490047659600  1.278731776700
H    5.025969255600 -3.200628131100  0.789820328700
H    4.859531425200 -1.016753022400 -0.345932688200
H   -3.384669019200  1.665065054300 -0.902320361000
H   -4.821598240900 -0.141467493800 -1.828227139900
