43
-65.59323802
C   -6.199972970300 -1.125620619400  1.105130017800
C   -4.843433458100 -0.780889258100  0.575508916800
C   -4.603292198000  0.478337349000  0.028043246500
C   -3.359593166700  0.801381231300 -0.482151265400
C   -2.349338301500 -0.141619417600 -0.448485623000
S   -0.738753939900  0.306752249900 -1.067760847100
O    0.072007101600 -0.886350728700 -1.176133278800
O   -0.879952567600  1.116005206400 -2.253529486200
N   -0.219192990400  1.312672802600  0.159774024800
C    0.346745268800  0.662760335000  1.338306601800
C    1.545668993500  1.542133347800  1.702400032800
C    1.066253175400  2.910599622400  1.210596601100
C    0.652619430700  2.431222286600 -0.177042548400
C    1.937047203300  1.939344880500 -0.854100730300
P    3.013578257900  1.279623537700  0.543566941100
C    2.989043146600 -0.527315688000  0.254709447100
C    2.899048229100 -1.399864681100  1.337577210400
C    2.973372972200 -2.766381952300  1.142489234500
C    3.163132848600 -3.276727042300 -0.131386343900
C    3.296500959600 -2.413577194300 -1.205954564200
C    3.221909966800 -1.046280476800 -1.014153909300
C   -2.561687474100 -1.395435890600  0.088829606400
C   -3.809614645700 -1.711667838500  0.599227672500
H   -6.627335422600 -0.284790648600  1.646275713500
H   -6.867709415800 -1.362265553200  0.276639576300
H   -6.154800812400 -1.988859770100  1.763201436700
H   -5.399006241600  1.207824752700  0.002756083400
H   -3.154661103200  1.767046181200 -0.915966564100
H   -0.404452520400  0.663751112400  2.138040040200
H    0.612185970000 -0.371107265900  1.104735901800
H    1.817934437000  1.493196069200  2.756250831100
H    1.855785440300  3.660409379900  1.171851352600
H    0.218757242600  3.285151559400  1.782961914800
H    0.098509026300  3.137550940100 -0.796998876000
H    1.706967093900  1.175246993200 -1.597658072900
H    2.451935694000  2.765833580400 -1.351045739700
H    2.761486709200 -1.002347260500  2.334402178600
H    2.884051716500 -3.435805320800  1.986468854200
H    3.215409042400 -4.344889139700 -0.285330288200
H    3.458869228500 -2.806780877900 -2.199508108500
H    3.340208036500 -0.380520961600 -1.858199173100
H   -1.748416283400 -2.104627830500  0.091231473300
H   -3.980901402800 -2.691785347200  1.018700048800
