43
-65.59217241
C   -2.899179690600 -3.761137309900 -0.834675697100
C   -2.487823169600 -2.349531994700 -0.555730735900
C   -2.136065204200 -1.947572912500  0.728769354600
C   -1.794502181400 -0.631609994700  0.989644486500
C   -1.803537115800  0.286055072700 -0.041493356300
S   -1.404535796600  1.997938599900  0.296983631100
O   -1.972003881500  2.817712289200 -0.745810696300
O   -1.776836653600  2.276631835900  1.662246711700
N    0.222224913800  2.177096293700  0.201738119200
C    1.132101645800  1.647704533200  1.202073309500
C    2.487558821600  1.696304101700  0.488249236900
C    2.289405733700  2.863422485600 -0.484207982400
C    0.951634544100  2.370737500500 -1.032236237200
C    1.251024088900  1.030287505800 -1.718962342900
P    2.695911298300  0.296543734100 -0.757464689300
C    1.937642364300 -1.141298521600  0.080625372800
C    2.275443221300 -1.438140794900  1.400054816600
C    1.818578433000 -2.599770127800  1.994586398200
C    1.047360624500 -3.494232530100  1.270060765100
C    0.739491164400 -3.224481381200 -0.052782357200
C    1.185196258400 -2.058112862400 -0.647049512200
C   -2.146098955700 -0.089313149000 -1.326887852300
C   -2.484795218100 -1.405943408200 -1.580638576800
H   -3.985012892900 -3.816898083700 -0.914121074600
H   -2.481382051900 -4.106215186300 -1.777699938700
H   -2.582417793000 -4.425293540400 -0.035491389100
H   -2.137594551700 -2.665939702700  1.534415676700
H   -1.547350580900 -0.297512247900  1.985174795600
H    1.110564784000  2.295213994000  2.086852218800
H    0.841019286500  0.639066641200  1.509722232600
H    3.333441205600  1.795941090200  1.167128643300
H    3.062913286600  2.923778043700 -1.249410133400
H    2.190925978900  3.820462878200  0.026118678800
H    0.394181785300  3.062053884100 -1.665003588900
H    0.380186758200  0.374279695800 -1.714801966500
H    1.556653525300  1.195027720400 -2.754891445500
H    2.898391651100 -0.753272472700  1.959132856100
H    2.074200639000 -2.812736715600  3.022757453300
H    0.700086424000 -4.406238051500  1.732960836900
H    0.159902444200 -3.930103665200 -0.627946936700
H    0.956402187800 -1.863000409800 -1.685497946800
H   -2.163487647000  0.663105434100 -2.100731730500
H   -2.760188284000 -1.704073302200 -2.581552332700
