43
-65.59271007
C   -4.012787782900 -3.567399127600  0.050319283800
C   -3.380086346500 -2.213699191000 -0.029175698700
C   -2.567279007300 -1.874069666400 -1.108410033300
C   -1.999821636500 -0.616147139000 -1.196033968200
C   -2.245024896200  0.307349449800 -0.197823229200
S   -1.439130476200  1.893034862600 -0.309418931100
O   -1.643718142300  2.465070699100 -1.617611715300
O   -1.817064781800  2.709110219800  0.826002240500
N    0.155877105200  1.402300003100 -0.222053863600
C    0.615805897300  1.081965877700  1.125615699700
C    2.038860233300  1.637494800500  1.157498890800
C    1.851465902600  2.925435990000  0.355095237700
C    1.173993610000  2.253907711800 -0.836196338800
C    2.235272073200  1.341754977800 -1.451109645500
P    3.206519628900  0.676532517200  0.019001418300
C    2.566817450600 -1.032364888400  0.187770155300
C    2.444177461200 -1.575659501800  1.466538363400
C    2.029382436300 -2.883008397800  1.638149746700
C    1.753791594900 -3.674677765300  0.534500083400
C    1.920606348600 -3.158215624800 -0.739118219100
C    2.337112561100 -1.849730737500 -0.913396481700
C   -3.046357564400 -0.004118418000  0.882329219300
C   -3.614172791600 -1.264265589600  0.961586061400
H   -4.151388388700 -3.871309238300  1.084548748700
H   -4.992992278300 -3.540766178100 -0.426422936300
H   -3.408401018100 -4.309563004500 -0.464243354400
H   -2.378690403100 -2.601367727800 -1.883818351700
H   -1.372745030000 -0.330513473300 -2.025099429400
H   -0.017793729000  1.595652387900  1.860355679600
H    0.548375977700  0.005463990700  1.294488712400
H    2.432438027300  1.765832515600  2.165290593900
H    2.785382476000  3.416975269700  0.084883353700
H    1.189475869400  3.631690060600  0.858455102100
H    0.694423931100  2.912181012900 -1.561605797900
H    1.777792871300  0.550256674400 -2.041995867800
H    2.906305031000  1.916119486800 -2.093931205300
H    2.670638122300 -0.962400158000  2.328600553200
H    1.923455702100 -3.286765917900  2.634859727700
H    1.425094153500 -4.694797028400  0.668120133800
H    1.732106001100 -3.779184342900 -1.603143119400
H    2.487811822300 -1.469458529300 -1.913522683100
H   -3.212539624800  0.745140853600  1.640860481200
H   -4.243735847100 -1.513657302200  1.802789828500
