43
-65.59156783
C   -5.173769586800 -2.463020649200 -1.214868930500
C   -4.207079097200 -1.468748053800 -0.652640334000
C   -3.112648643800 -1.893934791000  0.097972694900
C   -2.228776647500 -0.978513500700  0.639182550200
C   -2.440886061000  0.371095605800  0.428993759200
S   -1.259815635600  1.518110962200  1.113877133300
O   -1.639970672900  2.869509673400  0.759462789800
O   -1.068183624800  1.244219457700  2.516641200300
N    0.124951519100  1.027188991900  0.310098497200
C    1.391960562900  1.145090417400  1.031886385200
C    2.337929297900  1.771421358100  0.007285597000
C    1.384196583700  2.707985515400 -0.733585357800
C    0.320092614800  1.646757321400 -0.997967850600
C    0.972375762700  0.616888775400 -1.919457909800
P    2.777993975500  0.567393614100 -1.383029157100
C    2.897172933500 -1.027254062300 -0.489848781400
C    2.295329217200 -2.186392866900 -0.967877424800
C    2.484873647500 -3.392786030300 -0.316209322400
C    3.295176445800 -3.461656882500  0.804491201400
C    3.933172967000 -2.319640591700  1.262756749700
C    3.745191741700 -1.113560348800  0.614001311800
C   -3.516884105200  0.818404365300 -0.311413602600
C   -4.397942740000 -0.104254046200 -0.849933329500
H   -5.948753504800 -2.675198536900 -0.477944460500
H   -5.656262363400 -2.075094379800 -2.107984554600
H   -4.674043264300 -3.398098683000 -1.453935217100
H   -2.953840481800 -2.949961475600  0.257982123400
H   -1.376450265100 -1.286218512800  1.223868679900
H    1.261752874500  1.792109749900  1.906968797600
H    1.704543138600  0.159254337600  1.382950537700
H    3.209172127300  2.247083501100  0.456069008000
H    1.801324145500  3.126185608900 -1.649214782700
H    1.002546888800  3.507362438500 -0.096923392400
H   -0.637386022800  2.017884231600 -1.365027957000
H    0.483647257700 -0.352032432700 -1.829136314300
H    0.916680698600  0.944891418000 -2.959759172400
H    1.680611333300 -2.152690414100 -1.855927382300
H    2.001978833300 -4.284669653100 -0.689249358900
H    3.439826331300 -4.403649531900  1.312982014700
H    4.581237107600 -2.370536528500  2.126037479200
H    4.252241212700 -0.225278573000  0.966468283400
H   -3.647301246700  1.880466592900 -0.451804566400
H   -5.241640912200  0.239631349100 -1.429639151200
