43
-65.59086201
C   -4.934258473500 -2.545279393700 -1.352080562000
C   -4.042346972100 -1.533574377100 -0.703998166900
C   -3.023341186900 -1.946689487000  0.153487307400
C   -2.182802835600 -1.023651993300  0.746778666500
C   -2.361220943800  0.321708085100  0.482003820900
S   -1.215856565600  1.475435484300  1.213608636400
O   -1.654385749400  2.827873979500  0.941994272000
O   -0.983725849000  1.128227129700  2.593525690100
N    0.168467228500  1.086980193200  0.354171446700
C    1.442748821600  1.159839536000  1.070533900100
C    2.383016999500  1.790498782900  0.048333126200
C    1.449096333600  2.810154505900 -0.601257739500
C    0.337215962000  1.809465128000 -0.906306023300
C    0.932394985000  0.858072022400 -1.942785525200
P    2.721516542300  0.626035702100 -1.410193740800
C    2.740269918100 -1.012534331200 -0.575060188600
C    1.627835116500 -1.785497933100 -0.258223720400
C    1.789835523200 -3.019360347400  0.347956033500
C    3.056114833700 -3.496394942400  0.645165578400
C    4.169555673300 -2.733837218900  0.332397455200
C    4.010921526700 -1.504458249200 -0.280437060100
C   -3.362653933200  0.756470330500 -0.362269494700
C   -4.202355358800 -0.174198264400 -0.952138167200
H   -5.252857407100 -3.293168775800 -0.629329255300
H   -5.811491893200 -2.072940880300 -1.784967673900
H   -4.393434962300 -3.059932294300 -2.146069864900
H   -2.893198045300 -2.999543717800  0.355314353500
H   -1.394695635100 -1.317310759000  1.421846182500
H    1.337365432000  1.790901818100  1.961132836900
H    1.742129493400  0.161859060000  1.397736478700
H    3.295691422200  2.189767922400  0.489462320000
H    1.856822318100  3.273850138500 -1.498634699400
H    1.121251336200  3.578937126100  0.099919167900
H   -0.619157421000  2.241062939200 -1.203585920600
H    0.384923194300 -0.079650139000 -2.019628157500
H    0.929453859100  1.332651631900 -2.927491794000
H    0.631217788900 -1.422191597200 -0.459524185000
H    0.920100285300 -3.612564668500  0.591885377900
H    3.174346705500 -4.460406549800  1.118206593300
H    5.159991892700 -3.100328730700  0.560733207000
H    4.877167777100 -0.908881816600 -0.537243887700
H   -3.474585333200  1.815459328100 -0.536996303100
H   -4.989342330800  0.161488346800 -1.610901159700
