43
-65.59167999
C   -5.652926181500 -1.443194678300 -1.994723849000
C   -4.577186376200 -0.824708925600 -1.158726062900
C   -4.612138336100  0.529881093700 -0.841951642100
C   -3.627144906300  1.096353598800 -0.050371193600
C   -2.603375630800  0.301087583200  0.425653996200
S   -1.314874321700  0.996969300100  1.443049323300
O   -1.514999677700  2.425906807700  1.567138742900
O   -1.209783845800  0.258474155200  2.676504618600
N    0.047050120300  0.624645046000  0.529889250800
C    1.312934574700  0.735539306900  1.259896235000
C    2.165867550500  1.674916470800  0.403371574900
C    1.097389742300  2.594504358600 -0.186977715900
C    0.184180381400  1.465815889900 -0.656450171400
C    0.974900753400  0.682309328900 -1.706141691300
P    2.776209531700  0.835980890900 -1.172868857200
C    3.183312707900 -0.852625067000 -0.594762217700
C    4.023797638800 -1.007096827900  0.506965627200
C    4.436090224900 -2.265599375500  0.903569971200
C    4.034573396400 -3.384865455700  0.191505925000
C    3.231659746400 -3.236624516600 -0.927086642600
C    2.816702678300 -1.977963888700 -1.325923259300
C   -2.546683424000 -1.047710656400  0.127553233600
C   -3.533197937300 -1.605282527300 -0.664858334700
H   -6.390035275600 -1.919378611200 -1.348014443400
H   -6.162009927900 -0.692962001500 -2.593382150200
H   -5.242042536500 -2.207010415500 -2.650155002300
H   -5.415250600900  1.147210941100 -1.215980406000
H   -3.634663809700  2.144422429900  0.207279098100
H    1.123680781800  1.158505614900  2.252766145600
H    1.743837950200 -0.259792154800  1.389989147000
H    2.956084821900  2.173554711700  0.963210045500
H    1.459168002600  3.216264085200 -1.005732861000
H    0.608307632500  3.211638784800  0.567372463100
H   -0.807116623200  1.768410025100 -0.997428450600
H    0.642956243300 -0.354387008800 -1.748033211800
H    0.852088712200  1.133380221900 -2.693030216100
H    4.347813256200 -0.133780097600  1.056900342900
H    5.075961043200 -2.374065691800  1.767658997600
H    4.356868670400 -4.368029597000  0.501811973700
H    2.932479092400 -4.105343223600 -1.495954424600
H    2.210477482900 -1.871435100000 -2.214423234700
H   -1.732824751700 -1.633746806500  0.523687149100
H   -3.497035207800 -2.657742664200 -0.903516205200
