43
-65.59086523
C   -4.782317154900 -2.554151644400 -1.708158227600
C   -3.929372033400 -1.548094346600 -1.001467292000
C   -3.039991841200 -1.938047328800 -0.003729432800
C   -2.261836336000 -1.001485757800  0.653875534800
C   -2.377049040100  0.332495780200  0.313798075000
S   -1.299984211400  1.501437273200  1.121415885600
O   -1.723917267300  2.847214916100  0.799170945300
O   -1.173967607900  1.169687013300  2.518670576200
N    0.147834389400  1.114845711000  0.374238593500
C    1.361223303300  1.151681390800  1.191277636200
C    2.393223210400  1.772685499000  0.255259851200
C    1.536284164300  2.819504270000 -0.454356942100
C    0.431448265400  1.846814918500 -0.859527766900
C    1.087174615900  0.893094020800 -1.856639950400
P    2.823562825900  0.618390049400 -1.187152191600
C    2.743708995500 -1.031854336300 -0.379078245700
C    3.979082983100 -1.563343819300 -0.012116066200
C    4.065229864200 -2.806317128100  0.587599794300
C    2.914128909900 -3.542871155600  0.814178281200
C    1.682826865400 -3.026091329800  0.445158074200
C    1.592798036100 -1.778468781400 -0.147734337800
C   -3.254798131000  0.745561905000 -0.669638422200
C   -4.029130764500 -0.196429016300 -1.323514127200
H   -4.420641200400 -3.563897750300 -1.535946071000
H   -5.807108912500 -2.489487925400 -1.342834945600
H   -4.799364443700 -2.358616298200 -2.778020802100
H   -2.956284173900 -2.982090861900  0.258839896700
H   -1.570704258800 -1.278558883400  1.434110248300
H    1.198172461600  1.774965222700  2.078636254800
H    1.613086207400  0.143885137000  1.528390656400
H    3.275915686800  2.146843202200  0.772768496500
H    2.024254094700  3.283146359100 -1.310780298300
H    1.170170446500  3.588328247200  0.227590166100
H   -0.488676657600  2.302723496400 -1.226268663600
H    0.529217520200 -0.032692702700 -1.986021021900
H    1.171250816000  1.376596803800 -2.833360712700
H    4.875562994800 -0.987677949000 -0.201725485900
H    5.028785355700 -3.203645324600  0.872284670500
H    2.975951874300 -4.517583651500  1.275893477000
H    0.783971505500 -3.599272640900  0.621764510000
H    0.621005702500 -1.385009356400 -0.406375416400
H   -3.321898434900  1.797506828300 -0.900492172200
H   -4.718384499500  0.118684988100 -2.092734813100
