43
-65.59272538
C   -3.879497746400 -3.481125888600  0.682749406300
C   -3.307315288900 -2.147229894400  0.318780965900
C   -3.476144966500 -1.047751529100  1.154796866400
C   -2.921127054100  0.178980976900  0.831146711200
C   -2.198570864200  0.304538474200 -0.338093966400
S   -1.381413146300  1.835655156500 -0.741643149900
O   -1.529781341800  2.131367289300 -2.145551233200
O   -1.789856827400  2.865772283300  0.191032897900
N    0.200219252900  1.363382350100 -0.493530497300
C    0.612743157000  1.324877318700  0.905341119700
C    2.060901365800  1.808504416000  0.858464072000
C    1.950466363200  2.906266159700 -0.200203615000
C    1.263549899100  2.029818659700 -1.243940197800
C    2.294790262200  0.968907242400 -1.627943175600
P    3.196147680800  0.574875371400 -0.021928565000
C    2.457549613300 -1.026738447800  0.476694669300
C    2.192860532400 -2.040500217900 -0.437306833900
C    1.698454416800 -3.259637079800 -0.006834151200
C    1.486559369800 -3.491099805500  1.341531379000
C    1.795699182300 -2.504615154100  2.264596603300
C    2.288614141200 -1.286167485300  1.836835606300
C   -2.020082607200 -0.771021956100 -1.187356116900
C   -2.575864381100 -1.992915614100 -0.857283382100
H   -3.112445764500 -4.088728570900  1.163580188400
H   -4.710572689600 -3.373566158900  1.374567608200
H   -4.218477998100 -4.010948597800 -0.204169431000
H   -4.044349993700 -1.151163182500  2.067259807200
H   -3.040895759800  1.043738848900  1.465293056900
H   -0.009124796500  2.014968961700  1.490731400000
H    0.486430539500  0.315607467100  1.301933820600
H    2.444177702000  2.127604771500  1.827145800500
H    2.911626021100  3.289239421000 -0.541128087400
H    1.314947221400  3.730595158000  0.126709501000
H    0.826077002200  2.541216321600 -2.102252009600
H    1.814657876600  0.094261585800 -2.062861035300
H    3.008472624000  1.372699909400 -2.349779020300
H    2.376605323900 -1.884991605200 -1.490605556100
H    1.482935811000 -4.034361371400 -0.728606329200
H    1.097288968300 -4.441973911100  1.674586292200
H    1.655238158700 -2.686849534700  3.320456045600
H    2.541119573800 -0.521220814800  2.559104005700
H   -1.455298526400 -0.627303589200 -2.094480499200
H   -2.440722018800 -2.838267146300 -1.515274520500
