43
-65.59271295
C   -3.857321736200 -3.622693522200 -0.040342165900
C   -3.268806914200 -2.247646012600 -0.086712086400
C   -2.623987635500 -1.793082009300 -1.234946457300
C   -2.094604573200 -0.516804635000 -1.288917191400
C   -2.213184670100  0.311414504400 -0.189277233500
S   -1.434595383800  1.913121351900 -0.252368744400
O   -1.648668895800  2.522714718400 -1.541994809300
O   -1.820390653200  2.685867187600  0.910102901300
N    0.164555558600  1.440306075500 -0.179170909400
C    0.650716476100  1.121455015300  1.158819967900
C    2.087865943700  1.638817468000  1.143267051900
C    1.907598277800  2.929724263000  0.344102292500
C    1.178165631100  2.273421688000 -0.824899944900
C    2.201988312200  1.341173570100 -1.472029232000
P    3.190463654400  0.641449517900 -0.030001312400
C    2.496133915600 -1.043989076700  0.162665416000
C    2.421562630900 -1.584750209100  1.446469497100
C    1.964306075400 -2.874470937700  1.641236061500
C    1.595750224300 -3.651807789700  0.554527261600
C    1.713031333400 -3.139641640500 -0.726228244700
C    2.172688233000 -1.848907263500 -0.923731842400
C   -2.849399786200 -0.114029595500  0.959677007800
C   -3.378018493300 -1.392684008900  1.006261354800
H   -3.288676120300 -4.308972001100 -0.662279087900
H   -3.884613430600 -3.999874825900  0.978479072000
H   -4.880042351900 -3.595532530800 -0.417406574900
H   -2.535467051100 -2.445913840300 -2.090483688600
H   -1.595767243400 -0.143005060200 -2.168730206300
H    0.051128730700  1.659291140500  1.905052983200
H    0.559361325600  0.048949953400  1.341591524500
H    2.517597946600  1.758128526400  2.137321861900
H    2.844433799500  3.397832147400  0.044135058700
H    1.279750240200  3.652916840200  0.866689979900
H    0.689232060900  2.941643550200 -1.534723838700
H    1.712032865800  0.566130878600 -2.058391176700
H    2.872323167200  1.904153485000 -2.125660761900
H    2.718766806000 -0.982195752500  2.294623177800
H    1.897524969100 -3.275761443500  2.642366534800
H    1.233324967000 -4.657873001000  0.706089287900
H    1.450716331100 -3.749894829900 -1.578555416400
H    2.282683476000 -1.474411869100 -1.931145464300
H   -2.923564094200  0.564086213000  1.795687110500
H   -3.878298492800 -1.730649673000  1.901626421800
