43
-65.58582811
C   -6.143829312000  2.352734462800  0.005343870100
C   -4.971488105100  1.427490978200 -0.078543934800
C   -4.288426243900  1.246486510500 -1.278282683000
C   -3.191183702000  0.405775706600 -1.348273991700
C   -2.773214178100 -0.254535962400 -0.207605534300
S   -1.376234005400 -1.370378419400 -0.294381976200
O   -1.500370972000 -2.354563792400  0.759373286400
O   -1.302672608400 -1.890397679700 -1.637242204400
N    0.024722325000 -0.458712470700 -0.043045810000
C    0.980751014900 -1.040981801300  0.896643685900
C    1.380840718100  0.119335361500  1.811919013500
C    0.085504115400  0.929542427700  1.846675877900
C   -0.108810451000  0.943747049000  0.331900480900
C    1.093403080200  1.702414971200 -0.242438523100
P    2.513293366600  1.353060460100  0.944786924900
C    3.610181483800  0.267538366500 -0.039004051000
C    3.935519358900  0.577072260100 -1.355699443800
C    4.846779546200 -0.197793740100 -2.051451138100
C    5.459649271900 -1.275905469100 -1.435019761000
C    5.171298626900 -1.566879922200 -0.111033599700
C    4.262340912000 -0.793603688900  0.586901153700
C   -3.442233138500 -0.101973649500  0.992328378200
C   -4.537895211600  0.740048004100  1.053249000400
H   -6.544613723300  2.565937681100 -0.981548066500
H   -6.928226551700  1.924245531500  0.624675376900
H   -5.836884909300  3.294109805300  0.461120687600
H   -4.619371128800  1.764264030300 -2.166060765500
H   -2.654610487000  0.240566040500 -2.269438524900
H    0.488123716000 -1.841962564700  1.459501391400
H    1.816449012900 -1.475832210000  0.343325283200
H    1.756643427200 -0.206798420500  2.780838008900
H    0.205346559800  1.927325193200  2.267828311700
H   -0.719714256400  0.401312963600  2.357945265100
H   -1.057799665100  1.341840006300 -0.025340412800
H    1.310622725700  1.364954051100 -1.255412194000
H    0.894119733700  2.776141059300 -0.261417108200
H    3.479455516800  1.429626326700 -1.839187937100
H    5.083192048800  0.043909061200 -3.077941411300
H    6.168311163800 -1.881769804400 -1.980586788600
H    5.658929106700 -2.397410983400  0.379334380000
H    4.047189448100 -1.015922878200  1.623395830900
H   -3.105350675100 -0.659720656600  1.852206495500
H   -5.066040217000  0.862987832500  1.986878370300
