43
-65.59165714
C   -5.682447528000 -1.357154523400 -2.023958975100
C   -4.596051879200 -0.776641243600 -1.174672349900
C   -4.599929411000  0.576055774400 -0.846306721800
C   -3.608270504800  1.110797543900 -0.041761453400
C   -2.608307526500  0.286048347100  0.435647127300
S   -1.310645820600  0.943837440800  1.466660980600
O   -1.502435043500  2.369356561500  1.635473829200
O   -1.202356287100  0.167949406900  2.676498259500
N    0.046766629100  0.593817669400  0.537452059800
C    1.314837888900  0.715114506900  1.262415570700
C    2.151485662900  1.672880986100  0.410203035200
C    1.068430396100  2.584462225200 -0.165581545000
C    0.167029902800  1.448787521700 -0.640946744700
C    0.961977601000  0.685334428700 -1.702279842500
P    2.763957758600  0.855638709100 -1.176595171000
C    3.195229698800 -0.831513904900 -0.611733343900
C    4.049563130800 -0.979283361900  0.480293861300
C    4.479136087000 -2.234050850400  0.870128636100
C    4.080769469400 -3.356189694900  0.160766945700
C    3.264304039600 -3.214185950600 -0.948753718200
C    2.832338618800 -1.959127485500 -1.341050036200
C   -2.582649258900 -1.060903612300  0.126275417900
C   -3.576538999100 -1.587103420800 -0.678891733600
H   -5.310050901100 -2.189167131500 -2.615790419900
H   -6.483822912100 -1.730742050600 -1.386085586200
H   -6.102820991100 -0.604985814500 -2.686120341800
H   -5.384432799200  1.215980099300 -1.221871195700
H   -3.592208877100  2.156255459400  0.225979808500
H    1.124652364700  1.128173622600  2.259370076000
H    1.759128181300 -0.275460362400  1.382897481400
H    2.938376366300  2.176036842300  0.970684670700
H    1.417894441600  3.218420870300 -0.980304669200
H    0.576100959100  3.188018611100  0.597570179800
H   -0.829623609100  1.741895382500 -0.974464698600
H    0.642134675400 -0.354753470600 -1.753067866000
H    0.828947924800  1.144813900200 -2.683989180500
H    4.370403392200 -0.103518951900  1.028224362100
H    5.129727828100 -2.337362989400  1.726810566700
H    4.415931271700 -4.336623007500  0.466128605400
H    2.967438481900 -4.085031053200 -1.515612772600
H    2.215370241700 -1.857594166800 -2.222667673600
H   -1.787145477800 -1.670516384500  0.524109587700
H   -3.564296650400 -2.638205372100 -0.925775428100
