43
-65.59127742
C   -6.617303271700  0.680333180200 -0.024900501100
C   -5.165909257900  0.322505824200 -0.094915309500
C   -4.421729042700  0.564434918300 -1.244664869900
C   -3.080578398100  0.222527044000 -1.303342187300
C   -2.483882345900 -0.365559277200 -0.206418244000
S   -0.744319043900 -0.758724590000 -0.234123226100
O   -0.508940052500 -2.025469218900  0.411322621900
O   -0.263614963000 -0.620589223000 -1.592579338700
N   -0.169123707400  0.412096637600  0.795914240400
C    0.908005926100  0.095842667100  1.729851464200
C    1.722779646200  1.387435610700  1.779209223100
C    0.615345511100  2.427875118000  1.594930945500
C    0.015321265700  1.784037772200  0.346788598100
C    1.105972850700  1.890538811600 -0.723513464800
P    2.728715051900  1.669466007200  0.201627816400
C    3.219586055500 -0.039855638800 -0.240440001300
C    3.865961190600 -0.819592452000  0.718443715000
C    4.318310920900 -2.087006756400  0.404137974900
C    4.150732219100 -2.584782612700 -0.878296526000
C    3.550114584500 -1.799204444000 -1.847301490500
C    3.098886857100 -0.528628989700 -1.536244924200
C   -3.202377029100 -0.617066828100  0.947730762200
C   -4.540423887900 -0.274298590000  0.999207184300
H   -6.826801127800  1.245461985900  0.881056210600
H   -6.917349945300  1.268758953900 -0.887247178200
H   -7.221561370300 -0.225819138600  0.003210254800
H   -4.892078537800  1.023622043100 -2.101445663600
H   -2.486559290800  0.397393147600 -2.187014126000
H    0.470066248600 -0.131489923900  2.710816218600
H    1.461379521800 -0.783004546400  1.395972600400
H    2.316088116800  1.491297925100  2.687113553400
H    0.988101523600  3.433548353000  1.404517955600
H   -0.084485854600  2.437916848300  2.429453399400
H   -0.944811844900  2.184176835700  0.012259444000
H    0.962757022600  1.139847931600 -1.498639630300
H    1.089374678100  2.881696298400 -1.184396410200
H    4.004051775000 -0.428487318900  1.717871902800
H    4.802580077600 -2.688764431400  1.160008861700
H    4.496671378700 -3.578358400700 -1.123747546200
H    3.431710937400 -2.175886265100 -2.853311287800
H    2.645254484300  0.075524675500 -2.308658368500
H   -2.700793506700 -1.085091011000  1.779791504300
H   -5.110339313800 -0.468825555000  1.895630381300
