43
-65.59082072
C   -4.984968754700 -2.227979782700 -1.909724293100
C   -4.085725489700 -1.349391637700 -1.098237144500
C   -3.097324382200 -1.894879437500 -0.283024327100
C   -2.258877819700 -1.076573760800  0.453149716300
C   -2.409292862600  0.294383530800  0.372151358500
S   -1.270308097300  1.312691202400  1.290849516000
O   -1.655923977800  2.702758664600  1.170155754900
O   -1.113948556700  0.793661131500  2.626427197800
N    0.145645442900  0.983380738900  0.456813948800
C    1.388973479300  1.053905267000  1.227049340800
C    2.344736054100  1.778615646500  0.284809328300
C    1.400531925000  2.806209191500 -0.336663369600
C    0.337712285100  1.790720457800 -0.748264189600
C    1.004998233400  0.927752369100 -1.817296519200
P    2.778795602000  0.718749694200 -1.227201204300
C    2.820513969900 -0.966292469000 -0.491245483800
C    4.093117352500 -1.427365160700 -0.157428418000
C    4.269599370900 -2.685948387700  0.387471186400
C    3.173560088700 -3.508447940100  0.591148007400
C    1.906174637000 -3.061818223700  0.254104614900
C    1.725867284600 -1.799102452600 -0.283638785100
C   -3.382515104600  0.860490116500 -0.428109441600
C   -4.218931827500  0.035885378500 -1.159806913600
H   -4.683932906800 -2.197703336000 -2.956780673500
H   -4.936814877400 -3.258230479400 -1.568741644300
H   -6.014145806000 -1.881004770200 -1.850878375800
H   -2.985386267100 -2.967252630800 -0.223407000200
H   -1.493822529100 -1.475126649900  1.100356719700
H    1.226688519300  1.625503421700  2.148846394600
H    1.709927953000  0.048043494900  1.505638589400
H    3.225275620800  2.178824413200  0.786186451900
H    1.825182845300  3.339978560400 -1.185910567600
H    1.017942670700  3.516450763500  0.397682020300
H   -0.621177357800  2.208711439500 -1.057222840900
H    0.493083422600 -0.019557087600 -1.976165556800
H    1.024509653100  1.464956490600 -2.769076906200
H    4.946663925900 -0.784311888900 -0.328810173100
H    5.260951052000 -3.028139220200  0.647829799300
H    3.306325775200 -4.495270001200  1.010195830200
H    1.050226479900 -3.701911258500  0.413273303700
H    0.727444738100 -1.461722238800 -0.517568297100
H   -3.473402839500  1.935478593500 -0.457376009400
H   -4.984322457500  0.470485968200 -1.785460723500
