43
-65.59150482
C   -5.073800601700 -2.640186100400 -1.087384192600
C   -4.138013134900 -1.583719472600 -0.589881534100
C   -3.025240472900 -1.929109268300  0.174608479800
C   -2.170537536900 -0.955454430000  0.658092564200
C   -2.430074660300  0.372458804900  0.375512150100
S   -1.291334336200  1.597090048100  0.995400792200
O   -1.700456159200  2.907065273300  0.534910988900
O   -1.126957121200  1.427819560500  2.418349192600
N    0.123440593800  1.093312760100  0.253752489400
C    1.358264486500  1.172868286300  1.033519627300
C    2.368758172300  1.772359739800  0.055678171300
C    1.478086765100  2.735401794200 -0.728493002100
C    0.397294329200  1.705051650700 -1.043498163500
C    1.062992939200  0.656313372900 -1.933997901300
P    2.839636725200  0.557055478000 -1.314339806500
C    2.872120288300 -1.042147753600 -0.422102496800
C    2.271124789600 -2.184229769800 -0.940761896700
C    2.395320290900 -3.398185938800 -0.287412123200
C    3.138816545000 -3.491984098300  0.877031381500
C    3.776214405300 -2.367763122800  1.378101807400
C    3.654082151500 -1.154266036400  0.727249925900
C   -3.524157718500  0.740896024000 -0.381625077900
C   -4.376062799200 -0.239581060800 -0.861720305000
H   -5.826978902000 -2.847852258700 -0.326925770000
H   -5.586286185300 -2.313880868200 -1.988364703900
H   -4.541181104900 -3.565262603500 -1.292117036600
H   -2.828992205100 -2.968583415000  0.391584580000
H   -1.305372096100 -1.202408313600  1.252719868800
H    1.206418266900  1.821360836600  1.903837847300
H    1.626074092000  0.177661887400  1.395216483300
H    3.230930500800  2.223318601100  0.545650959300
H    1.949596496900  3.140861750900 -1.623210755700
H    1.091026990200  3.546305787000 -0.109836529700
H   -0.530825794900  2.103187476400 -1.454452353200
H    0.544460081300 -0.299039602200 -1.867382545300
H    1.064756770600  0.985074408200 -2.975570523800
H    1.708721912200 -2.131263191700 -1.861999705900
H    1.914314103800 -4.276600066400 -0.693411611000
H    3.232516636400 -4.439957150900  1.386364901500
H    4.372756116700 -2.438107300500  2.276467317000
H    4.161526937000 -0.280304800400  1.113366812400
H   -3.690806652800  1.788386400300 -0.580728619400
H   -5.234240300100  0.042885467100 -1.453278936000
