43
-65.59253261
C   -3.874906829100 -3.567066095000  0.444352788200
C   -3.285030733900 -2.210544660400  0.217174823600
C   -3.189105492100 -1.305004715800  1.271769063700
C   -2.653014791500 -0.045132272300  1.075546101800
C   -2.213616079500  0.312511559000 -0.184357454600
S   -1.423443175900  1.888228739100 -0.445265722500
O   -1.682179133800  2.351596984000 -1.786518480200
O   -1.759171748300  2.785583114600  0.639471720600
N    0.175607788600  1.408197193600 -0.371630100800
C    0.742795036300  1.328415113000  0.971599453900
C    2.183220482000  1.786949546100  0.767476382800
C    1.972182568900  2.919499280200 -0.237082664600
C    1.155065381700  2.085864829000 -1.221424112000
C    2.133968794000  1.040543520800 -1.757101375500
P    3.178194418800  0.550649938700 -0.272146740000
C    2.458655090600 -1.053780353900  0.270517148900
C    1.254269439300 -1.599829749200 -0.162579789400
C    0.836703409800 -2.829666081500  0.315452572600
C    1.611892865300 -3.530214860200  1.225153464300
C    2.814444847400 -2.996601583300  1.659162780900
C    3.235974454500 -1.769878343900  1.179539749700
C   -2.298108614100 -0.566541730300 -1.246125400200
C   -2.836590012800 -1.825322722800 -1.042859421900
H   -3.706575741500 -4.216004965800 -0.410494808600
H   -3.444405999000 -4.026822325400  1.331556488200
H   -4.949229085800 -3.480874492400  0.604875572800
H   -3.536052612900 -1.592065623200  2.253240305000
H   -2.574913300800  0.671883917800  1.877783042600
H    0.203558673600  2.013463639700  1.638721535400
H    0.648367185100  0.312707383600  1.362118450900
H    2.686984737700  2.057732842400  1.694877974200
H    2.894392248300  3.300066453200 -0.674089660300
H    1.393789693000  3.741737739900  0.187031022700
H    0.627877363200  2.631461186700 -2.004898346700
H    1.634719011500  0.191803283500 -2.221308854200
H    2.791104398800  1.494681717900 -2.503395929600
H    0.622851069300 -1.061658952900 -0.853526283100
H   -0.103414979400 -3.238689685100 -0.024616754000
H    1.280561752100 -4.490255796400  1.593117498700
H    3.425189932500 -3.538420610200  2.366863022800
H    4.178226651100 -1.351700958400  1.508269618500
H   -1.951105519700 -0.245013339800 -2.215672749500
H   -2.907036946800 -2.515267336800 -1.870784084000
