43
-65.59266678
C   -4.089786873800 -3.510156069400  0.349987444900
C   -3.460955673300 -2.168913012200  0.137924414100
C   -2.589598928400 -1.946138608700 -0.924799316000
C   -1.995677015700 -0.709350689500 -1.103433999000
C   -2.273231903900  0.308898982500 -0.212217967800
S   -1.439333287800  1.868613568200 -0.434470058800
O   -1.642686393800  2.358996704900 -1.775508620600
O   -1.795787717600  2.764941583300  0.646119177600
N    0.149436848500  1.356862942800 -0.325758499400
C    0.595305167500  1.081992235100  1.037409463600
C    2.006752940600  1.667167173200  1.079321261600
C    1.813513877400  2.921794675900  0.227347642300
C    1.171198158400  2.195927836900 -0.951404602300
C    2.255681979000  1.274573221000 -1.509688644400
P    3.216256149000  0.689893291900  0.000964971100
C    2.613295689100 -1.025284470300  0.231221535200
C    2.406041919300 -1.890822982000 -0.837087050900
C    2.016586934500 -3.199886158800 -0.611551499700
C    1.856059880000 -3.668397787400  0.681301672700
C    2.109762977200 -2.827335232400  1.753335541100
C    2.496196239500 -1.519060081400  1.530514324500
C   -3.135839434200  0.114655198400  0.848862582300
C   -3.729526311300 -1.123604210900  1.018616747200
H   -3.975872020100 -4.138735153600 -0.528490793500
H   -3.615863422700 -4.009386147100  1.194856149500
H   -5.148139472500 -3.405368343500  0.578302293500
H   -2.374245254700 -2.746555548900 -1.616681489400
H   -1.323527382200 -0.514190958900 -1.923268736100
H   -0.060515009500  1.601380478900  1.747891228500
H    0.548003304900  0.008994128100  1.233709826400
H    2.375168480400  1.838774224400  2.090155375300
H    2.744169348900  3.420110978100 -0.041689236200
H    1.128368224300  3.633256354400  0.690959484200
H    0.699017842300  2.819841011000 -1.711253842200
H    1.818397483900  0.451123328000 -2.071582638200
H    2.926953523000  1.830553855700 -2.168251634500
H    2.553060120100 -1.548086021900 -1.851250541300
H    1.844080687800 -3.858647662200 -1.450616900400
H    1.548736714900 -4.689229448200  0.854548436100
H    2.009091728000 -3.193193107200  2.765172458300
H    2.704242872400 -0.866231810700  2.367827890800
H   -3.327480987500  0.936714317200  1.521134769700
H   -4.407305180900 -1.282710515700  1.844135086700
