43
-65.59171914
C   -5.572077030300 -1.908889225500 -1.440040521700
C   -4.507190112400 -1.103285236300 -0.764839706800
C   -3.409280919200 -1.741690526300 -0.188527520900
C   -2.422208172900 -1.013435869400  0.448200341600
C   -2.532169228900  0.363893492300  0.507482035700
S   -1.230940837900  1.274160181700  1.318143153900
O   -1.479056388400  2.695431545900  1.192183028800
O   -1.040326227300  0.774686525100  2.656884893500
N    0.094559349400  0.781467128600  0.412621542200
C    1.394955384000  0.994538742500  1.052552781800
C    2.212714612500  1.744080907000 -0.000908876200
C    1.128021277600  2.588173132100 -0.669304701900
C    0.165252336900  1.426600844600 -0.896461072300
C    0.869673376600  0.470586000700 -1.859591349500
P    2.701300975100  0.629203298600 -1.445243222600
C    3.072174677000 -0.957416880900 -0.609870402600
C    2.605437936600 -2.170103483400 -1.106342543300
C    2.984216663500 -3.361349867500 -0.512065641800
C    3.850208391900 -3.358037388800  0.568515468600
C    4.352665158500 -2.156788134500  1.043646453700
C    3.976327190500 -0.965592226300  0.451640547000
C   -3.609132902500  1.020128722000 -0.053656476200
C   -4.595256652900  0.282661860700 -0.688742528800
H   -5.129693338600 -2.611948150500 -2.142784452800
H   -6.125498723600 -2.485358207700 -0.699451974700
H   -6.270397770500 -1.268384180000 -1.970972914800
H   -3.332770222600 -2.817552720000 -0.241074023700
H   -1.566450023300 -1.486008708700  0.903388925600
H    1.262446868700  1.596321427500  1.958957794100
H    1.818253703200  0.030535938400  1.343103161700
H    3.050153800400  2.301553251400  0.416887801000
H    1.449272602800  3.060279286200 -1.597459643500
H    0.699980583100  3.332533380500  0.003159540800
H   -0.841417912000  1.700866658400 -1.215471314200
H    0.502428707400 -0.547122982200 -1.734483425000
H    0.706980672000  0.780839901000 -2.893958632300
H    1.948995656400 -2.187302824700 -1.964743773200
H    2.606164478000 -4.297172279200 -0.898285760000
H    4.142614097600 -4.288549426500  1.032710780300
H    5.042576196200 -2.149319244700  1.875396092500
H    4.378236031300 -0.029849838700  0.816490531400
H   -3.657441891300  2.096163401200  0.015729005900
H   -5.439796679700  0.791904863300 -1.128608351300
