43
-65.59266993
C   -4.085476117800 -3.525363232200  0.268488561500
C   -3.451335858300 -2.180505374100  0.098947143800
C   -2.621225418500 -1.912202160900 -0.986097989300
C   -2.026977620100 -0.671209947500 -1.130311566600
C   -2.262959844300  0.305781206400 -0.182723484200
S   -1.438915784800  1.874409423400 -0.374967130700
O   -1.659789005900  2.391170981800 -1.703511597900
O   -1.790366213100  2.744275397500  0.728546584400
N    0.153616132600  1.372241958900 -0.292804409300
C    0.631717501200  1.105650353700  1.060603926800
C    2.049967190000  1.675099044100  1.058111346700
C    1.845738252400  2.926713483700  0.204178879100
C    1.163155657200  2.200687987400 -0.951600129700
C    2.224042329500  1.268067296300 -1.535648832800
P    3.217371772900  0.677969991100 -0.048507387000
C    2.599374822600 -1.028679532400  0.203411772700
C    2.360085053200 -1.895873595800 -0.856837910900
C    1.961905314200 -3.199904259000 -0.618170041600
C    1.823376649200 -3.661815580000  0.679600082600
C    2.108051639000 -2.819370502000  1.742689746200
C    2.504128913300 -1.516268803800  1.506763446300
C   -3.080666950500  0.064727401000  0.903852895400
C   -3.674522490800 -1.177756647200  1.039641634800
H   -3.571028589600 -4.079270308000  1.053488261900
H   -5.127496861000 -3.423078571900  0.563215193500
H   -4.030700523200 -4.101827463500 -0.650553210800
H   -2.439810235900 -2.679992176500 -1.723238209800
H   -1.388126529100 -0.439832772500 -1.967249330800
H    0.000818287200  1.639730085100  1.782822796000
H    0.577168264000  0.035347512500  1.269245056200
H    2.449684372800  1.848658657200  2.056650777800
H    2.773521334600  3.413466581100 -0.094451655000
H    1.182038800500  3.648423213200  0.682798460100
H    0.674319820000  2.824707735000 -1.700651180800
H    1.765256269600  0.447204319200 -2.083930926200
H    2.883297775700  1.816414357500 -2.212455520700
H    2.489506317000 -1.558456194900 -1.875151538800
H    1.765444442400 -3.860160692200 -1.450720827900
H    1.509352471600 -4.678779799200  0.863189516400
H    2.024028700800 -3.180064306700  2.757871748800
H    2.736997845400 -0.862827533700  2.337027220600
H   -3.240641487400  0.855153784300  1.620821362900
H   -4.318483302300 -1.372872138400  1.884312451900
