43
-65.59237664
C   -6.109125331300  0.319413666900  1.775617301600
C   -4.880679921300  0.229454432500  0.926261102700
C   -4.345720786600  1.376081219900  0.341991015500
C   -3.217052357100  1.303519493400 -0.453984571600
C   -2.618976933900  0.075979386700 -0.672550435300
S   -1.126989119300 -0.013681381000 -1.661226673900
O   -0.980647009300 -1.364012477700 -2.142150350800
O   -1.149138352800  1.051625607400 -2.632810591400
N    0.158975772700  0.280274534700 -0.656047525300
C    0.365025063500 -0.645950352200  0.451094354500
C    0.747183279300  0.265258118000  1.620093276400
C   -0.111588834700  1.497112524300  1.329211256300
C    0.322240691100  1.628670268100 -0.128889862300
C    1.821196238800  1.938588625500 -0.089171493100
P    2.470719857800  1.011616272600  1.416492474900
C    3.416299264100 -0.369419675800  0.675810916700
C    4.286334182900 -0.162160528700 -0.389420079400
C    5.068814454600 -1.199664903400 -0.865286634300
C    5.009377302800 -2.448484475100 -0.269719704900
C    4.175696142000 -2.652708656000  0.818360048400
C    3.393495375500 -1.617875840300  1.296124389500
C   -3.140964175500 -1.076971498500 -0.118275796700
C   -4.268602875800 -0.995951635700  0.681959587100
H   -6.220498879400 -0.565209312600  2.396394886600
H   -6.074113421500  1.201030306400  2.411350361800
H   -6.989953443900  0.402960537800  1.138968313600
H   -4.818705053400  2.331662747900  0.512706022400
H   -2.799509662400  2.180312107400 -0.923490610000
H   -0.561687300400 -1.190493906800  0.666428673100
H    1.133313875600 -1.373857525100  0.182865314800
H    0.590718983700 -0.195063276700  2.594826086200
H    0.162823978200  2.366543649500  1.925834645700
H   -1.178079955700  1.296475244600  1.433706530700
H   -0.235241517900  2.324107736100 -0.755681664800
H    2.303551238700  1.622075696800 -1.013192248700
H    1.989216519100  3.009436345600  0.046198150900
H    4.358455543500  0.813785478400 -0.848530576500
H    5.731639628300 -1.030822484500 -1.702009082400
H    5.619189003900 -3.257398902700 -0.644726178000
H    4.138709938800 -3.620674187400  1.297426998800
H    2.753648795100 -1.775629722300  2.153815090000
H   -2.669123453800 -2.022174460300 -0.338965029900
H   -4.677655316100 -1.895426250800  1.117510624300
