43
-65.59146926
C   -4.693928319200 -2.846521965200 -1.135875753100
C   -3.875576678800 -1.721786055700 -0.583608054400
C   -2.833149017800 -1.968446170300  0.306420568700
C   -2.062772129000 -0.929348631400  0.797073685400
C   -2.337545309200  0.363811286300  0.395878827000
S   -1.274557018200  1.667203439700  0.988356773600
O   -1.757363055700  2.938974881200  0.493531935600
O   -1.090030619200  1.543666286200  2.413461335900
N    0.153913633500  1.224155935900  0.246891418100
C    1.392509091000  1.272276407100  1.018968095200
C    2.418700867100  1.780176002600  0.006941886400
C    1.574923803800  2.785124973300 -0.776540995700
C    0.427258685400  1.819129386800 -1.057594735800
C    1.011557531600  0.731236080700 -1.957756734200
P    2.779139268300  0.505621658600 -1.345235133000
C    2.697383969100 -1.068928471500 -0.412363186000
C    1.974437914400 -2.167073629800 -0.865168415700
C    2.013854090300 -3.364636454900 -0.171897616100
C    2.794276917100 -3.488864870900  0.965047763200
C    3.552965506100 -2.412870145900  1.398625638200
C    3.513585048500 -1.215436191500  0.709345632700
C   -3.365698016400  0.635179255400 -0.485213869200
C   -4.133384967000 -0.409100985500 -0.970691129600
H   -5.739369045500 -2.558932247100 -1.216889369400
H   -4.340283788500 -3.102320588800 -2.134798045100
H   -4.614364307800 -3.730754250700 -0.509717622100
H   -2.622990151600 -2.981124348800  0.616734378700
H   -1.254015828200 -1.098986399400  1.490071583700
H    1.283557406100  1.963908062100  1.862968811800
H    1.614287072300  0.281027887800  1.420175365900
H    3.320016213200  2.181870719700  0.468544601300
H    2.053074469700  3.146812135800 -1.686284100300
H    1.254227341200  3.628338138300 -0.163361764800
H   -0.487191060400  2.268255735600 -1.446078847300
H    0.426788116300 -0.185115226400 -1.894806918500
H    1.033869134800  1.064410521100 -2.997750863200
H    1.380155532400 -2.094465658700 -1.764488472000
H    1.436882321100 -4.206981761700 -0.525802717800
H    2.822346376400 -4.423779346600  1.505437725900
H    4.178776621900 -2.508954068600  2.274524439400
H    4.113957875100 -0.379490786500  1.042842740900
H   -3.549347169200  1.659407899300 -0.770957369100
H   -4.940477001400 -0.204276509600 -1.658375241100
