43
-65.59151811
C   -4.913804757200 -2.362959988100 -1.816836607800
C   -4.026621461700 -1.416052520800 -1.071438370600
C   -2.964387728500 -1.896074100100 -0.307733750100
C   -2.153554992300 -1.027236612700  0.399173431100
C   -2.406380123800  0.330467002300  0.342414014200
S   -1.307490894100  1.421153897200  1.227414090300
O   -1.709661392200  2.793313506300  1.001256183800
O   -1.192278919100  0.993074939800  2.599867436800
N    0.134736093300  1.062458794200  0.460437452600
C    1.348205905400  1.010935950200  1.273935721300
C    2.389198872300  1.721607895300  0.409771875900
C    1.533789864900  2.813902875700 -0.231090714500
C    0.438326250800  1.869481671700 -0.717932530500
C    1.098978852700  0.962579254200 -1.755190334200
P    2.855043235000  0.710578165000 -1.120322428100
C    2.816848657100 -1.002499766100 -0.472680400200
C    2.173745333200 -2.035279992200 -1.146317426700
C    2.245276500100 -3.332765751300 -0.669204203600
C    2.978578673700 -3.619179831000  0.469866664100
C    3.658938555100 -2.603226174700  1.122761730000
C    3.588159970200 -1.306612535700  0.648944356700
C   -3.452395691600  0.831565954100 -0.406184047100
C   -4.261018016700 -0.044695389400 -1.110456221600
H   -5.721475790600 -2.696631720000 -1.164930806100
H   -5.358359860300 -1.879985990600 -2.682898380000
H   -4.360076473000 -3.240629278800 -2.139954362900
H   -2.772484674400 -2.958007911100 -0.268899011700
H   -1.327516022200 -1.378367016300  0.996953351900
H    1.185571198600  1.537166222900  2.221835409000
H    1.592024989100 -0.028969632200  1.501735561800
H    3.253796133300  2.071347984700  0.972748489100
H    2.029972380400  3.340340132200 -1.045818278900
H    1.153426436800  3.529474082600  0.499154817000
H   -0.476247668000  2.346819502600 -1.071150174700
H    0.553782246300  0.025792172900 -1.859515841800
H    1.138108803900  1.458187816400 -2.727733196700
H    1.618185523800 -1.831920065500 -2.050474610400
H    1.730555011300 -4.125146985300 -1.193590845400
H    3.031090869200 -4.632002189000  0.841731027800
H    4.248208885200 -2.823241061400  2.001527047700
H    4.128042276200 -0.516415160100  1.153503947100
H   -3.616004790900  1.898090597100 -0.424309128900
H   -5.081295774600  0.341358922800 -1.697172994000
