43
-65.59247461
C   -4.118498279600 -3.494565145400 -0.315980399800
C   -3.459408832800 -2.151985473500 -0.265923886400
C   -3.256753545800 -1.513447678900  0.955330920000
C   -2.663545804500 -0.264806738700  1.010709288800
C   -2.271285419200  0.348813463300 -0.163091913400
S   -1.431313910700  1.919664058600 -0.112417054800
O   -1.680133929800  2.641875207300 -1.336112908600
O   -1.746441449700  2.595826471500  1.127820814300
N    0.160467513200  1.398811853100 -0.136867099400
C    0.738492090300  1.105597615800  1.172943508200
C    2.165632695100  1.633736381600  1.057371039300
C    1.927754673200  2.902671776700  0.239507580600
C    1.134220196300  2.211330873300 -0.866680178300
C    2.134409979100  1.276319540900 -1.547255821000
P    3.205686574000  0.610619424500 -0.152740683200
C    2.562389479700 -1.086803494500  0.146394232100
C    1.384352729500 -1.620940221100 -0.366690152500
C    1.031639281800 -2.928144804400 -0.078820572200
C    1.844572378400 -3.716177926500  0.719701752100
C    3.019817500900 -3.193345667900  1.233965088700
C    3.377739748800 -1.889838102400  0.942479165200
C   -2.459222116100 -0.264258228800 -1.386538161300
C   -3.056479631900 -1.511651676600 -1.434722733700
H   -3.892218721300 -4.006497403400 -1.247274826700
H   -3.799460062600 -4.112388543200  0.519966874300
H   -5.199900860600 -3.374778318200 -0.248169066700
H   -3.566610584500 -1.998857124900  1.868805307200
H   -2.507007279000  0.249188885500  1.946111449500
H    0.182365346700  1.649752090100  1.946704240400
H    0.675374616900  0.035509442800  1.382512418700
H    2.654854608600  1.770525414800  2.021313828300
H    2.841195141900  3.369374440700 -0.126953715000
H    1.326141260200  3.634461474000  0.781035220900
H    0.601824706900  2.860096211300 -1.562903905000
H    1.650592075000  0.489853792600 -2.123960771800
H    2.773440335400  1.847486704000 -2.225836740600
H    0.726176012300 -1.017234580500 -0.973807158800
H    0.115212374600 -3.333822293300 -0.481862066800
H    1.563558909600 -4.736048926000  0.938296446900
H    3.659351309900 -3.803017997700  1.855792061700
H    4.299530146400 -1.478426502800  1.332159678300
H   -2.144380814100  0.252191382800 -2.279766763800
H   -3.209202494700 -1.993918314300 -2.388851455400
