43
-65.59161349
C   -5.796429397000 -1.595525182600 -1.487764523900
C   -4.676303593700 -0.904538324600 -0.776019259100
C   -3.628375534600 -1.633799345500 -0.218998174000
C   -2.584222879100 -0.993530015000  0.424634046000
C   -2.588302280800  0.385826393400  0.508238799700
S   -1.233162169800  1.189932930800  1.343091362900
O   -1.406333763100  2.626112192600  1.273854302200
O   -1.066859148900  0.631734087800  2.661478380000
N    0.072635584400  0.664986895000  0.421731509900
C    1.376325533500  0.905621502500  1.047084968200
C    2.164618809900  1.692781730800 -0.003095773600
C    1.050020516600  2.491832855100 -0.677445110100
C    0.130526371700  1.293802538900 -0.895546266300
C    0.874575588400  0.347845496200 -1.840665509200
P    2.700171475000  0.603438364900 -1.447550958500
C    3.170534884300 -0.957280737800 -0.614336860900
C    4.078500801900 -0.911103763400  0.442863916600
C    4.536607021300 -2.077999703700  1.025503179000
C    4.112808627400 -3.307196777400  0.545334855300
C    3.241353741800 -3.362153612000 -0.529553853800
C    2.780743903300 -2.195438861900 -1.114548500200
C   -3.615344342700  1.132653103200 -0.036390376600
C   -4.656648151000  0.484430485100 -0.677249691100
H   -5.605899598100 -1.593220698800 -2.561083696600
H   -5.887601050700 -2.627810575600 -1.161579951100
H   -6.738577462000 -1.081216850500 -1.315444886100
H   -3.632942357900 -2.711379225700 -0.287347595400
H   -1.767581479600 -1.539106177100  0.869778691900
H    1.236382310400  1.489553131300  1.963659628100
H    1.829912419700 -0.050485521300  1.317822254300
H    2.976188373800  2.284395452200  0.418599013000
H    1.355335130800  2.967813931300 -1.609146856500
H    0.594342584500  3.224706629700 -0.010932389500
H   -0.882735244200  1.527173019000 -1.226282426300
H    0.558526426300 -0.683097846700 -1.685766617900
H    0.689010354800  0.622403155800 -2.881219255100
H    4.419019666600  0.047175759500  0.811477193000
H    5.229331507600 -2.029393227200  1.853521557500
H    4.470565476900 -4.218817307700  1.001171147100
H    2.923835884400 -4.318982034400 -0.918765845300
H    2.120238814600 -2.250039046600 -1.968358932300
H   -3.581637022700  2.207534460400  0.055194081600
H   -5.463590088000  1.062037492900 -1.102971939700
