43
-65.59153881
C   -5.022322222000 -2.221003053400 -1.877352157700
C   -4.121873067400 -1.323332019300 -1.088174370000
C   -3.025143060100 -1.854481321200 -0.410278461000
C   -2.177610656600 -1.036332158100  0.312528448600
C   -2.426644433400  0.323120530800  0.357409952700
S   -1.294126594000  1.348491813900  1.277246662600
O   -1.670747407200  2.738249056500  1.124884331700
O   -1.170052010700  0.853864072800  2.626236897100
N    0.133540468300  0.996695820400  0.478068426400
C    1.361877832300  0.985460798400  1.271853549500
C    2.365490427800  1.729693902800  0.392026174800
C    1.464410081700  2.793356243600 -0.234373369400
C    0.393472171300  1.813388002500 -0.704750235500
C    1.067233448900  0.928683754200 -1.752458225900
P    2.840608458700  0.734615490900 -1.145594701800
C    2.865384118600 -0.979432741700 -0.499915944200
C    2.250323543400 -2.030667413500 -1.171270404900
C    2.363989966900 -3.325871168200 -0.696281962000
C    3.112128078400 -3.590876904600  0.438317850600
C    3.765985655500 -2.555544391800  1.087774273300
C    3.653344109200 -1.261145819100  0.615860945100
C   -3.504209767600  0.874070323700 -0.305676806600
C   -4.350379482700  0.047287911300 -1.026865663800
H   -4.516174448400 -2.547072245800 -2.785643418300
H   -5.275324914400 -3.109004909800 -1.302201570200
H   -5.937253514100 -1.707721115500 -2.159059083900
H   -2.838799361000 -2.917364071100 -0.450832971800
H   -1.327027167000 -1.427490876000  0.847685121000
H    1.197214851600  1.507327416900  2.221847007600
H    1.641836624300 -0.045835944600  1.496574250900
H    3.226724284600  2.107765035000  0.941684191800
H    1.930007184500  3.336472029900 -1.056174655000
H    1.071095804700  3.495122666900  0.502370276900
H   -0.541467097200  2.260542049300 -1.044403011700
H    0.551758201400 -0.025629759000 -1.848146319500
H    1.074311078200  1.425335196900 -2.725217828200
H    1.683582846000 -1.842981037600 -2.071900518300
H    1.870219833700 -4.133001237200 -1.218316895100
H    3.196563186200 -4.601839177300  0.809344993900
H    4.366919370700 -2.758486884400  1.962718176500
H    4.172691979900 -0.455649574100  1.117751240100
H   -3.664418419600  1.939547368000 -0.244470087100
H   -5.196154219500  0.473772543900 -1.545328216900
