43
-65.59246405
C   -4.163104422200 -3.472096557000 -0.354872967700
C   -3.490035597800 -2.137577955000 -0.281537432300
C   -3.232806201800 -1.539253810700  0.948916234500
C   -2.629103178300 -0.295686716300  1.018290262000
C   -2.281115982500  0.352034455700 -0.150672550300
S   -1.432681469800  1.917767546800 -0.083351722700
O   -1.689980257800  2.659414357700 -1.293608183100
O   -1.734848150300  2.576035790600  1.169708222700
N    0.157370638500  1.392153436800 -0.128190479600
C    0.751344757100  1.094317705300  1.173509738900
C    2.175526239600  1.628144756500  1.045787182400
C    1.926326767800  2.897469485500  0.232006116600
C    1.123444298100  2.205456622800 -0.867000560100
C    2.117715764900  1.271663971700 -1.557916869400
P    3.207943266900  0.611323987100 -0.175586257500
C    2.578714908200 -1.089579541500  0.133173949400
C    1.404033973500 -1.636162572200 -0.374240807200
C    1.064347203300 -2.945656505000 -0.080923249700
C    1.886592053700 -3.723238428300  0.718291394200
C    3.058160629000 -3.187621497000  1.227799641500
C    3.403498086000 -1.882163935600  0.930076478200
C   -2.522726877600 -0.221897255300 -1.384141009200
C   -3.130028984900 -1.463177543600 -1.446074729500
H   -5.240757542700 -3.333327226100 -0.445486759200
H   -3.824143235100 -4.030861518400 -1.223524981100
H   -3.973096697400 -4.053789734000  0.543262636900
H   -3.507432526500 -2.050311242900  1.859625338500
H   -2.431800991900  0.187644541400  1.962256144300
H    0.201615006600  1.632299907700  1.956013734500
H    0.694601787200  0.022858602300  1.377906354400
H    2.672796503600  1.765143137400  2.005568823100
H    2.834969670000  3.366905519000 -0.142854083800
H    1.328164153300  3.627137563000  0.780211133100
H    0.583798766300  2.854056546800 -1.557693822900
H    1.628238772400  0.483484430900 -2.127495870400
H    2.747039407300  1.843112673100 -2.245276302400
H    0.738855044900 -1.040739100300 -0.981893312900
H    0.150984559200 -3.361769037000 -0.480306612700
H    1.615698932300 -4.744959800600  0.940982617600
H    3.704857057500 -3.789064720700  1.850170537600
H    4.322593519600 -1.460861717400  1.315596992100
H   -2.240153906500  0.320366205600 -2.272849049500
H   -3.325600441300 -1.915534708700 -2.407012009100
