43
-65.59168993
C   -5.630278669600 -1.416126646700 -2.039483134100
C   -4.560720005400 -0.816194778700 -1.182322596200
C   -4.585052940700  0.536871607400 -0.857729918000
C   -3.606527422300  1.086974565000 -0.046972944100
C   -2.599748335700  0.276913773500  0.440349085800
S   -1.315505692900  0.952122253100  1.476694969300
O   -1.524804983800  2.375595094200  1.641614330800
O   -1.203212742900  0.178970781000  2.688009100600
N    0.046912409600  0.615614208500  0.550644561500
C    1.313851147700  0.705464998100  1.281652859900
C    2.164033907400  1.671441203500  0.452584594400
C    1.093414239000  2.608948837400 -0.104636460400
C    0.179527596300  1.495478382000 -0.607863419600
C    0.967297561200  0.747711779500 -1.685303079900
P    2.769794386000  0.882496733900 -1.151264745000
C    3.176441814600 -0.823551375800 -0.626320646800
C    2.801343704600 -1.927250506300 -1.385539370700
C    3.215423155100 -3.197571491100 -1.024410268400
C    4.026018298800 -3.378818330500  0.083706444600
C    4.436378871200 -2.280638007200  0.823092949400
C    4.024694825800 -1.010642087100  0.464389431100
C   -2.553809617200 -1.070514321600  0.134643188800
C   -3.534271830800 -1.611961707800 -0.676332041500
H   -5.222616468800 -2.195994600400 -2.677705229500
H   -6.395103284000 -1.867357270200 -1.407089355700
H   -6.105700151000 -0.659102501700 -2.657090455700
H   -5.374733397800  1.165737226100 -1.241031699300
H   -3.606678610900  2.133293202700  0.217878283000
H    1.126062611900  1.098041489300  2.287232357800
H    1.745950382700 -0.292887685000  1.380827333600
H    2.956021488800  2.152217945900  1.025403013900
H    1.452436454700  3.257194714100 -0.903798599500
H    0.606223375400  3.200997734100  0.670784953800
H   -0.813005378300  1.808272268800 -0.935547538100
H    0.634312713700 -0.286663759800 -1.761841842500
H    0.842661057200  1.232329157900 -2.655965701400
H    2.189070443200 -1.794944629500 -2.266354580400
H    2.909345318800 -4.049492515000 -1.614645388700
H    4.347469030000 -4.371090492200  0.364593827600
H    5.082504313400 -2.414557536900  1.678916345400
H    4.355152048000 -0.153587224100  1.035694270400
H   -1.753082892300 -1.668185357200  0.540077848300
H   -3.506578824000 -2.663422357000 -0.920468566600
