43
-65.59088627
C   -4.775818824600 -2.680706088300 -1.550509869100
C   -3.924273016200 -1.621090775200 -0.925068558600
C   -4.000024930900 -0.303613151500 -1.369906189700
C   -3.230860589100  0.686324569300 -0.783490523500
C   -2.382747396700  0.355760626800  0.255268533200
S   -1.323094201400  1.587948112200  0.988980030800
O   -1.742480034400  2.900938368800  0.548349707700
O   -1.234101801600  1.368726702800  2.411388291100
N    0.144751862300  1.153741353300  0.307612556900
C    1.323804041400  1.166424288200  1.174157023900
C    2.411063653000  1.754782429500  0.280193706700
C    1.611221450700  2.809391330300 -0.482442058300
C    0.503827771800  1.855326215400 -0.923764386700
C    1.182354473200  0.868767807200 -1.872865485900
P    2.884387449400  0.575576513500 -1.127359204800
C    2.747390419500 -1.062558578600 -0.302695986800
C    1.577036138900 -1.788332351300 -0.104536436800
C    1.625692568700 -3.029005440500  0.507587774200
C    2.834282451500 -3.559188182000  0.929007144500
C    4.004443704600 -2.843373032800  0.735866343400
C    3.959898090300 -1.607599850600  0.117088473000
C   -2.290022696200 -0.943699708900  0.715547262500
C   -3.062523625600 -1.928026084800  0.125111579500
H   -5.771108912600 -2.659576898100 -1.106069770600
H   -4.884375303300 -2.509280039400 -2.618606867200
H   -4.353122918200 -3.668233939100 -1.387197460300
H   -4.666648462100 -0.051803802000 -2.181273293700
H   -3.280748759200  1.713765326500 -1.109232556000
H    1.138071834000  1.798953280100  2.050151672700
H    1.536892034800  0.155017712700  1.527140085000
H    3.276078760300  2.117507869500  0.834441613600
H    2.148258593600  3.249022031800 -1.322032687700
H    1.232139949500  3.596543514600  0.170948483700
H   -0.386822054900  2.325772961600 -1.341034900100
H    0.611995976200 -0.048825080900 -2.006799564400
H    1.315995734600  1.330114690400 -2.854792912700
H    0.621604480400 -1.384070391000 -0.404619598700
H    0.712223163100 -3.586249244600  0.657852543400
H    2.863665148900 -4.528262436800  1.405545457200
H    4.950527191600 -3.251237151700  1.061350336000
H    4.871585510700 -1.048251249800 -0.046990330600
H   -1.621174064000 -1.156479043500  1.534450655500
H   -2.997926466800 -2.945085238600  0.482174929000
