43
-65.59135803
C   -6.638009864700  0.604825487300 -0.030595407700
C   -5.179853375700  0.274726930400 -0.097252233100
C   -4.464986861300  0.420210628700 -1.281381850500
C   -3.117728235400  0.102950668000 -1.337045934300
C   -2.485151129600 -0.364022441200 -0.202681673200
S   -0.736826499200 -0.717926385600 -0.231612687200
O   -0.459843892200 -1.907009042500  0.534314147000
O   -0.291343223800 -0.706296709500 -1.608496245400
N   -0.166559281300  0.569365876200  0.651438522000
C    0.851595145300  0.362992202100  1.676943040800
C    1.708873271700  1.623528930500  1.579936481000
C    0.644832962100  2.657790064600  1.204528736800
C    0.075371411000  1.863605194200  0.030972254700
C    1.211166753300  1.797329421000 -0.994317164900
P    2.785457248500  1.647800467100  0.023389713100
C    3.220350510500 -0.123674410800 -0.155035369400
C    3.117811135100 -0.791413382500 -1.369924048400
C    3.528015937200 -2.108508026900 -1.478858824000
C    4.069815229900 -2.764968648000 -0.387004145900
C    4.219157709700 -2.092218451000  0.815309491600
C    3.807523466900 -0.777933957400  0.927848554100
C   -3.174065045900 -0.517993412500  0.986018226600
C   -4.518446103500 -0.200277574600  1.034598127500
H   -6.850222950000  1.221886172600  0.839958756100
H   -6.961710113700  1.129222479500 -0.925125849400
H   -7.220804031700 -0.311111175100  0.062620165000
H   -4.963429585300  0.784256516900 -2.167486128100
H   -2.546058234300  0.204085722000 -2.246568520000
H    0.359765337400  0.297886972900  2.656800119700
H    1.386074119700 -0.571952296800  1.504316347900
H    2.269815460000  1.837817069000  2.489076343500
H    1.057435623600  3.616946188500  0.894264958300
H   -0.087195091300  2.802632903200  1.997941236400
H   -0.857977965800  2.237125577400 -0.396849075500
H    1.070432461900  0.959716719400 -1.674859090300
H    1.249605850600  2.721622895200 -1.576972904500
H    2.710147701100 -0.291485855600 -2.236710785000
H    3.423935519000 -2.623134053300 -2.423486295900
H    4.383924235200 -3.794852619700 -0.474825126600
H    4.657251001700 -2.594124845200  1.666234533000
H    3.931139805100 -0.250771921100  1.864723166700
H   -2.645341517400 -0.893353102600  1.847756492800
H   -5.065122486500 -0.319595952100  1.958243873500
