43
-65.59165227
C   -5.242262347300 -1.935900413300 -1.977213549200
C   -4.283506763400 -1.152378972800 -1.136916536000
C   -4.486290436000  0.200476974600 -0.886814778800
C   -3.588070222300  0.919493807700 -0.114587504300
C   -2.484061630400  0.277920325400  0.408887177400
S   -1.292013559800  1.165105550400  1.394627522300
O   -1.621059843800  2.575406258600  1.399852766300
O   -1.148889947700  0.532667285000  2.682445755000
N    0.104745417100  0.846715086800  0.525221009400
C    1.359906032200  0.903318061000  1.276218648000
C    2.277484818800  1.746447089800  0.390890582500
C    1.279460193600  2.749491373700 -0.186663308700
C    0.274510005800  1.699015136100 -0.649512514600
C    0.984354751300  0.883238138800 -1.729012312600
P    2.786792629000  0.828414829700 -1.182254026400
C    2.980251478500 -0.889987758300 -0.578168647000
C    2.437939400100 -1.976292419500 -1.256389261100
C    2.681146866000 -3.266630928400 -0.818271148000
C    3.486900289400 -3.489461408200  0.285537891700
C    4.067260915600 -2.414928761400  0.941121264900
C    3.825396087000 -1.125379436600  0.505979944800
C   -2.260038157800 -1.066868058000  0.176216606000
C   -3.159488783100 -1.776614584500 -0.596436583900
H   -4.757368416900 -2.250817242600 -2.900420173900
H   -5.562401861800 -2.832407718600 -1.449792629300
H   -6.116990741500 -1.343394774900 -2.229166781200
H   -5.352286676600  0.698338818900 -1.296910349800
H   -3.726448246100  1.969905592800  0.091053116000
H    1.189169071200  1.382890581600  2.247132538200
H    1.721029638400 -0.111080755000  1.458078791400
H    3.120423235600  2.179038673000  0.928488497800
H    1.678485064800  3.344078596000 -1.007911843900
H    0.852059168500  3.402038181100  0.575811811300
H   -0.699624594700  2.079605095800 -0.959863790200
H    0.545223080800 -0.108957931100 -1.820015906300
H    0.918679401500  1.388571203500 -2.695044829800
H    1.827824433200 -1.819045359600 -2.134268498300
H    2.243526281000 -4.102641759200 -1.344964171300
H    3.672693652900 -4.497030542100  0.627748563000
H    4.711807202400 -2.583307153200  1.792024718600
H    4.287211704200 -0.288345080600  1.012441162700
H   -1.386714848200 -1.530526875400  0.606632535900
H   -2.993525504200 -2.826931048300 -0.784554246000
