43
-65.59214494
C   -3.015544442400 -3.744390939200 -0.523737188700
C   -2.571344771900 -2.330701474100 -0.314251773000
C   -2.644273870700 -1.412535253000 -1.359578151300
C   -2.271041135700 -0.094729637400 -1.168454403600
C   -1.816961144300  0.307251385000  0.073773736700
S   -1.361743695000  2.019259330800  0.328607881800
O   -2.014408805600  2.820903859000 -0.677803059500
O   -1.595665343400  2.341121228300  1.714817970500
N    0.250637253100  2.164632211800  0.072784120100
C    1.249156908400  1.694012340100  1.016059576800
C    2.532925664500  1.691870798300  0.178461189300
C    2.245303131900  2.797807102400 -0.841870868800
C    0.862769046000  2.279541981700 -1.232538653200
C    1.098355217800  0.897839125900 -1.860280533500
P    2.624568565100  0.215780754700 -0.990864425100
C    1.948960585000 -1.158566366300  0.009300911900
C    2.425709798300 -1.373262473500  1.301721128400
C    2.027158776000 -2.485925134400  2.018861038700
C    1.173800428300 -3.413895322400  1.443670986500
C    0.726305327500 -3.226960551600  0.146683728100
C    1.114870377400 -2.109598247800 -0.569832769200
C   -1.732713100800 -0.584466575400  1.123905097000
C   -2.110396503600 -1.901691741200  0.926211195100
H   -2.646146111000 -4.391198147100  0.267096631000
H   -4.104705579200 -3.790503888600 -0.521028774000
H   -2.671919357800 -4.118375258200 -1.485630487300
H   -3.005371240900 -1.731527424300 -2.326235420600
H   -2.343621955900  0.638536560300 -1.957243855200
H    1.309015143400  2.395344975600  1.856953164100
H    0.988758552600  0.708156416800  1.412287030500
H    3.437783368200  1.828841484200  0.769045626400
H    2.944886407000  2.806840105500 -1.677320958300
H    2.193966649600  3.784937863600 -0.384697401200
H    0.248869714200  2.934075711600 -1.852098564000
H    0.231430863100  0.248264948800 -1.737492420100
H    1.308995580300  0.997401882900 -2.927720944900
H    3.110385911900 -0.661946938100  1.743257031800
H    2.391543057200 -2.634637919100  3.025312424200
H    0.870277433800 -4.287285420800  2.002044697400
H    0.080917025800 -3.959224841900 -0.313803205300
H    0.775386617400 -1.980348117400 -1.588018402500
H   -1.397410258300 -0.229522340900  2.085855266100
H   -2.053224771800 -2.599886831200  1.747395093100
