43
-65.59167622
C   -5.404772455400 -2.065764729600 -1.423153786000
C   -4.388868451700 -1.197775899000 -0.749631296200
C   -3.272764357400 -1.772115911000 -0.141992800500
C   -2.319297160400 -0.983507812100  0.473690332900
C   -2.481528346800  0.389846039300  0.480935453500
S   -1.219393284900  1.374960788800  1.265544062400
O   -1.510266575300  2.780462469800  1.073162657700
O   -1.027599366600  0.938177657900  2.626044760500
N    0.124160905200  0.883297505900  0.390599290400
C    1.416637843900  1.041657235500  1.059858487600
C    2.289804765100  1.737401004900  0.015160652500
C    1.262945301000  2.640718190500 -0.667112782000
C    0.241749251600  1.534020273100 -0.912298934900
C    0.905396535100  0.551007460200 -1.876109454100
P    2.733280962500  0.589023759900 -1.419399639200
C    2.975678094100 -1.017016063900 -0.573342890600
C    3.861024126700 -1.083893830100  0.501984078400
C    4.139265488000 -2.294836303500  1.108007337200
C    3.556068844500 -3.459341041700  0.633726164500
C    2.709002036900 -3.407105421000 -0.460462093000
C    2.428580596700 -2.195931148200 -1.068896487200
C   -3.576759792400  0.983385275600 -0.113264647500
C   -4.528890488300  0.185836821100 -0.727335062300
H   -4.987793111200 -2.480440148900 -2.340471071800
H   -5.681262075300 -2.898147091300 -0.779514242300
H   -6.297371067100 -1.500417286800 -1.675080711300
H   -3.155293193600 -2.845493551000 -0.153028515100
H   -1.450756751400 -1.406567377700  0.952830487300
H    1.294476477000  1.660761482200  1.956137023000
H    1.786618636500  0.062542709900  1.371537886500
H    3.153136347200  2.246676442800  0.441759871000
H    1.622600788000  3.096857346200 -1.589032291600
H    0.867365428300  3.406557313800  0.001312011900
H   -0.745597349500  1.864333071700 -1.238045613600
H    0.472218911200 -0.443253684600 -1.777552763800
H    0.786365881100  0.887954162500 -2.908140201700
H    4.325849040700 -0.177556410500  0.866428747700
H    4.815186870800 -2.331664237300  1.950398908600
H    3.771445748200 -4.405178827700  1.108947117000
H    2.268477654900 -4.315348814700 -0.846294165300
H    1.785970378700 -2.172533905200 -1.937431451200
H   -3.666674658500  2.058531391600 -0.084097383900
H   -5.388220226000  0.645776040700 -1.192089149900
