43
-65.59169194
C   -5.617301081700 -1.774599634700 -1.493642051900
C   -4.548396107000 -1.013067229600 -0.775054481600
C   -3.471376511600 -1.685299842600 -0.199522813400
C   -2.467014283400 -0.988848544900  0.446988462900
C   -2.539667525000  0.389976948300  0.516824423500
S   -1.216665563900  1.261176227100  1.335249609400
O   -1.434662801000  2.688804430000  1.227348012600
O   -1.030188872800  0.742044208800  2.666884577000
N    0.095595394300  0.751038209300  0.418992136800
C    1.402496187200  0.967134121900  1.044883369000
C    2.210083655700  1.712943642800 -0.019383995100
C    1.118759764700  2.550989797900 -0.684276329000
C    0.155877395300  1.386505715000 -0.895270072500
C    0.854044420100  0.423222071000 -1.856013294400
P    2.688951469400  0.590055623700 -1.460568152800
C    3.078405112300 -0.985754967300 -0.613007205700
C    4.009621992200 -0.973815992200  0.424978096100
C    4.405999083400 -2.153681146400  1.026250926100
C    3.895181445000 -3.364084713200  0.584425887800
C    3.000158756300 -3.387640022800 -0.471986412000
C    2.602067800400 -2.207637931800 -1.076251179300
C   -3.596541886600  1.079895706100 -0.043256691900
C   -4.599170911400  0.374830663000 -0.687930505100
H   -5.820557275900 -2.718639924900 -0.994371740100
H   -6.535201638100 -1.196407944000 -1.552999485400
H   -5.288947443600 -1.997138364000 -2.509050588200
H   -3.423148031000 -2.762338275600 -0.259270144300
H   -1.627404641700 -1.488508903500  0.903243776800
H    1.278228042500  1.572422962300  1.950046779400
H    1.829430113100  0.004602935800  1.334926588700
H    3.049666347800  2.274297250600  0.388697077200
H    1.431778292300  3.017126621900 -1.618211815400
H    0.695162346800  3.299112557600 -0.013234980600
H   -0.853380812300  1.656984611400 -1.209311265800
H    0.489854347500 -0.593913127600 -1.718324935000
H    0.681466464100  0.723531043900 -2.891747720700
H    4.416962585200 -0.030677938600  0.763847604900
H    5.117898318800 -2.130306146000  1.838856352500
H    4.203584928500 -4.286014741600  1.055297367300
H    2.614318688700 -4.330769024800 -0.831778188200
H    1.922528906400 -2.241657506100 -1.915865397500
H   -3.616401794900  2.156093802800  0.036570515700
H   -5.428443949700  0.909363368400 -1.126688809300
