43
-65.59147503
C   -6.642876923600  0.423998229200  0.281551444200
C   -5.184594538000  0.131845219400  0.114792432800
C   -4.535583648600  0.424320266400 -1.081260430900
C   -3.181716770800  0.176539981200 -1.229430963000
C   -2.474153394900 -0.369015006500 -0.176563386400
S   -0.715786476100 -0.633384934100 -0.326342212200
O   -0.340547967900 -1.834302729700  0.377312944300
O   -0.361453169400 -0.548253143900 -1.726080494000
N   -0.149190962900  0.658602621400  0.553175366500
C    0.821210679900  0.448859148800  1.622356990400
C    1.721919683800  1.677898069400  1.524015506000
C    0.698773206000  2.736147025500  1.104014360200
C    0.138867832700  1.941005107700 -0.073402087300
C    1.299087778400  1.836441245900 -1.066921064400
P    2.838235179900  1.638064989300 -0.005169755400
C    3.200772476300 -0.152035897600 -0.157945996200
C    3.721411649700 -0.827383461700  0.945654312200
C    4.073477331300 -2.160322291700  0.851115923300
C    3.932473277300 -2.831267590600 -0.353044758100
C    3.460563751400 -2.155048512900 -1.465044290600
C    3.108746976100 -0.819986384100 -1.373643204800
C   -3.095726923600 -0.667720463200  1.020842074800
C   -4.448981346000 -0.418511885500  1.162179263800
H   -7.106061414700 -0.288025683800  0.959655613400
H   -6.770819977100  1.421616288600  0.702359116500
H   -7.157167553100  0.393598144700 -0.675329616100
H   -5.093807942500  0.847653984300 -1.903089382700
H   -2.661765641900  0.386862454200 -2.151204270700
H    0.291865875400  0.430109550300  2.584821645800
H    1.327761181300 -0.508210556200  1.494055693100
H    2.267018295600  1.892245730300  2.442807375000
H    1.146225180300  3.678511392900  0.790758242100
H   -0.049383047900  2.913977129700  1.875421082200
H   -0.773290290500  2.331781294100 -0.530160722600
H    1.149320091400  1.003847556600 -1.751450054600
H    1.382717951800  2.758543531100 -1.648434664100
H    3.840367404400 -0.301831273200  1.884061232900
H    4.458019747000 -2.678391425500  1.718096879200
H    4.198980528500 -3.875571219000 -0.426574184200
H    3.364752430300 -2.668444479300 -2.411236796200
H    2.755799204600 -0.305075947800 -2.255750097100
H   -2.510811223100 -1.103130900100  1.815585660800
H   -4.941985267300 -0.653513073600  2.093835023600
