43
-65.59265872
C   -4.282548311600 -3.436107557600  0.203752901200
C   -3.581510468400 -2.121291661100  0.066212783100
C   -3.850356979500 -1.073864319500  0.941455257200
C   -3.212424002800  0.147339783000  0.800075859300
C   -2.304789532500  0.319593972800 -0.225387917200
S   -1.435615645000  1.863589744900 -0.419172448800
O   -1.618101391800  2.374163542200 -1.755553798900
O   -1.786874637300  2.754272975900  0.668003813100
N    0.146201211500  1.326282256700 -0.304188788000
C    0.551803825700  0.984466462300  1.057186039200
C    1.943404438800  1.603869274600  1.188723862500
C    1.751859925000  2.894394981700  0.391620031700
C    1.176349585100  2.212576362600 -0.846400079300
C    2.302653927100  1.341328072500 -1.402049555300
P    3.224711876300  0.717393139800  0.116797050500
C    2.678500774400 -1.027197502200  0.236885059700
C    2.578442133000 -1.845904381000 -0.882889285300
C    2.245485317900 -3.182351360500 -0.745365118000
C    2.032678893500 -3.723421903000  0.511257160600
C    2.175241860900 -2.926069511800  1.635866724500
C    2.507260546500 -1.590966151100  1.501034758100
C   -2.021285761200 -0.704653931800 -1.109549058500
C   -2.659429386300 -1.921673092800 -0.960038679300
H   -5.088603276800 -3.499996430600 -0.527308901700
H   -3.597194294600 -4.259080620700  0.015809049100
H   -4.712672570300 -3.547830522900  1.195087869600
H   -4.562628274100 -1.212864346500  1.741082603600
H   -3.404025220300  0.971463691700  1.469858484300
H   -0.143600181700  1.443758348600  1.771049523600
H    0.528701760200 -0.099125505400  1.189054029700
H    2.263999630200  1.734350662700  2.221750176200
H    2.679328660500  3.427938565900  0.186373519500
H    1.029210379300  3.564803620900  0.859417910100
H    0.722272702000  2.862864021100 -1.595123602200
H    1.906242307300  0.531739309900 -2.012514183400
H    2.981750785400  1.940666991200 -2.012766473500
H    2.767870051800 -1.443978042900 -1.867989944600
H    2.159022390700 -3.805434423900 -1.624063293300
H    1.771166563700 -4.766147838400  0.616008075900
H    2.031458068400 -3.347349303000  2.620539605800
H    2.631054000900 -0.972842479500  2.380245685900
H   -1.308542997800 -0.528596804300 -1.898836373800
H   -2.442907822200 -2.727900024600 -1.644850057500
