43
-65.59266280
C   -4.301084102200 -3.271839885300  0.750119664100
C   -3.604145016600 -2.005688804600  0.362390241700
C   -2.647363296700 -2.016748219600 -0.651799405400
C   -1.985360488800 -0.857983184800 -1.010918914400
C   -2.279231501500  0.320264333300 -0.349800061700
S   -1.374610422100  1.787151035700 -0.804511868200
O   -1.508878719400  2.040246411100 -2.217961304900
O   -1.735820467200  2.871938155300  0.085090786200
N    0.190334751200  1.254232569800 -0.541548287200
C    0.551010340300  1.164632007200  0.871261044300
C    1.958823396300  1.758177475100  0.924472661000
C    1.826714463100  2.882800743300 -0.102748665300
C    1.258300352000  1.998690934800 -1.209137880900
C    2.369737453800  1.010689855400 -1.562699539000
P    3.233385999400  0.650918728800  0.071638611900
C    2.622477281500 -1.023206059000  0.497123581100
C    2.409792890300 -1.335626977700  1.839733508000
C    2.024939378400 -2.609899052800  2.212416923700
C    1.869297544200 -3.597090562600  1.252133066000
C    2.122850713400 -3.307137172500 -0.077782884900
C    2.509449739100 -2.032158408600 -0.453216495500
C   -3.221396339000  0.358084526100  0.657897927600
C   -3.883684508800 -0.806687597700  1.009634672900
H   -4.633588527100 -3.811069512900 -0.134143168100
H   -3.614291940100 -3.919027437200  1.295011376300
H   -5.158498246800 -3.067888292100  1.385100706700
H   -2.423245987900 -2.942110858300 -1.161052308700
H   -1.247296886700 -0.843720637500 -1.796385798300
H   -0.145660747500  1.770071496800  1.464927849600
H    0.488568119600  0.126660342600  1.204139143400
H    2.260661791000  2.069271706800  1.923995700900
H    2.775115463200  3.343533631300 -0.376932728100
H    1.115566638200  3.647899086400  0.212527429500
H    0.841231575800  2.510490426700 -2.077356015200
H    1.963050217400  0.114074607800 -2.027313590600
H    3.082670819200  1.469678357100 -2.251492638600
H    2.543146776000 -0.569133751600  2.591488364300
H    1.849932581600 -2.835237360700  3.254699782000
H    1.566072068000 -4.592313787900  1.542366801100
H    2.026120509800 -4.079475070400 -0.827413487800
H    2.729740007400 -1.827866111800 -1.491255196200
H   -3.421513222700  1.297989066300  1.148862853100
H   -4.623761153100 -0.781100822100  1.795572775700
