43
-65.59169497
C   -5.453997936800 -1.585689302500 -2.070075299200
C   -4.442165845900 -0.939793141600 -1.176835369500
C   -4.560241297000  0.403794967100 -0.831569069600
C   -3.615033987100  1.011938095000 -0.023330155300
C   -2.547383853500  0.269463079500  0.441938978900
S   -1.298763783800  1.016071079600  1.472957189700
O   -1.556985956400  2.435431137300  1.598835026900
O   -1.166965557600  0.277939526800  2.704165820300
N    0.073659449500  0.701772856500  0.558689621700
C    1.340857045300  0.791221231800  1.287952624700
C    2.204351915200  1.711767433300  0.423848784100
C    1.149676152300  2.670593288300 -0.127544474700
C    0.199928124600  1.576272659700 -0.605079834000
C    0.947566993000  0.808931230700 -1.695659749300
P    2.757582520000  0.870774921700 -1.174925397700
C    3.087773148000 -0.843656785900 -0.622655393300
C    2.635012958600 -1.945042677000 -1.341499140400
C    2.989685333600 -3.226071612600 -0.955517713300
C    3.818472019500 -3.422041209900  0.136423869600
C    4.306828272600 -2.328550848600  0.834216865000
C    3.953734027100 -1.048118435200  0.451125689100
C   -2.407495899100 -1.066103297400  0.114882103300
C   -3.355078680500 -1.665789851800 -0.694868766900
H   -6.437215856000 -1.146357436000 -1.923035427200
H   -5.171563830400 -1.435619896500 -3.112329618000
H   -5.508505289500 -2.655231980600 -1.885979064800
H   -5.398352409500  0.978209397700 -1.197153456200
H   -3.687403457000  2.051732107600  0.256922400300
H    1.163335435000  1.223766994500  2.279354977300
H    1.753471235200 -0.210964901500  1.422972416500
H    3.022299819400  2.178338621700  0.971502644900
H    1.511538329400  3.301395973200 -0.939102781400
H    0.691011121200  3.283259281000  0.649508456000
H   -0.792472552500  1.910574163900 -0.911393297200
H    0.573423765200 -0.210427500500 -1.779254536100
H    0.834476834500  1.307553872600 -2.660697435600
H    2.008407809100 -1.804685069400 -2.210746383100
H    2.622419562100 -4.075244253200 -1.513970974400
H    4.093295758700 -4.422606409800  0.436705010400
H    4.967896731800 -2.474667599100  1.676558519800
H    4.344583529800 -0.195429840600  0.990051341900
H   -1.561571423800 -1.610432700100  0.503428700500
H   -3.252815026500 -2.708748666400 -0.955147800600
