43
-65.59084026
C   -5.053347472400 -2.067332797600 -1.991157750200
C   -4.140855034300 -1.225553269600 -1.155916520500
C   -3.166460224600 -1.830848508900 -0.362447435300
C   -2.310883433200 -1.067637021500  0.408881608100
C   -2.428411492700  0.310160495300  0.387813919000
S   -1.263848608200  1.258946855900  1.347835900400
O   -1.615393533700  2.662102624900  1.291910454800
O   -1.116037770500  0.677398217700  2.658310139300
N    0.142621560600  0.932497807100  0.494938818100
C    1.390853768100  0.990966500600  1.259295960200
C    2.336779805300  1.748608918200  0.333033242200
C    1.381186946300  2.782772200300 -0.259625157000
C    0.326093043900  1.768097121600 -0.692295913200
C    0.996931583700  0.934317534400 -1.782243063800
P    2.777731353900  0.736348615500 -1.209046880400
C    2.848535243900 -0.969794289900 -0.526318622100
C    1.761389164400 -1.806753833100 -0.295714626900
C    1.961362686700 -3.083232681900  0.200871903800
C    3.240963562000 -3.540015443400  0.472073745100
C    4.329376704700 -2.714221395400  0.243346407100
C    4.132906835100 -1.440949667200 -0.259102912200
C   -3.385759151600  0.933318386900 -0.386511722600
C   -4.241305091000  0.161562584900 -1.156191078400
H   -5.548188865500 -2.814970124300 -1.374011662400
H   -5.808347697800 -1.459273347000 -2.480990406600
H   -4.481303829700 -2.594422834500 -2.753649936400
H   -3.083210720100 -2.907482882000 -0.352693842600
H   -1.556248361700 -1.511690527700  1.038427428800
H    1.229431933300  1.536063222500  2.197128537500
H    1.720404803900 -0.019759534300  1.508703921800
H    3.214946917100  2.144057019100  0.842337843300
H    1.798136792400  3.341041992600 -1.096907281800
H    0.994146135200  3.470958304500  0.493174660100
H   -0.636706760000  2.185198071900 -0.990191804400
H    0.496099544400 -0.016655450400 -1.954720825300
H    1.002155819300  1.489470938200 -2.723822994000
H    0.755186306300 -1.461386379800 -0.480291962400
H    1.111449354600 -3.726437036600  0.379709600200
H    3.388909154700 -4.537551147700  0.859500445600
H    5.329969026300 -3.064848792400  0.451317015000
H    4.979619320100 -0.794602821700 -0.449492416100
H   -3.451461358300  2.010447490000 -0.369207903000
H   -4.993290509700  0.644886378600 -1.761908945800
