43
-65.59324195
C   -6.184714004800 -1.136674578600  1.111021704200
C   -4.831814875100 -0.783229374500  0.577952001400
C   -3.800998683000 -1.718234036300  0.576407873500
C   -2.555932905200 -1.397054226300  0.062806338400
C   -2.343306540600 -0.134221325800 -0.453414062000
S   -0.735894586200  0.321536468200 -1.075374909100
O    0.077213531400 -0.869018015400 -1.193785061500
O   -0.882064138900  1.137983011400 -2.255491924100
N   -0.216182958300  1.322302069900  0.155896270600
C    0.340102019100  0.666624026300  1.335770730900
C    1.543269575500  1.537335840400  1.706648695700
C    1.075011369500  2.909890640600  1.215313893000
C    0.664349046000  2.435764428600 -0.175029576400
C    1.948735951500  1.937019120300 -0.847171153300
P    3.014650098300  1.267337820700  0.554036072000
C    2.980081255700 -0.538587615800  0.260457876600
C    3.221563445600 -1.054603291100 -1.008034250000
C    3.286782278600 -2.421678451300 -1.204414594700
C    3.135093525900 -3.287726035900 -0.134580573000
C    2.936755745100 -2.780676187200  1.139263274000
C    2.872116820400 -1.414292119200  1.339007138900
C   -3.350543409600  0.812287459300 -0.462862920500
C   -4.591639255200  0.484463676500  0.051303874400
H   -6.832537830200 -1.443732478400  0.289682544000
H   -6.122567245700 -1.959175576900  1.818305351300
H   -6.645192111400 -0.279947325300  1.596582013400
H   -3.972989619600 -2.705006111400  0.979889609400
H   -1.744816853400 -2.108611117800  0.047112370100
H   -0.414589690600  0.671431946300  2.132184411400
H    0.599430984100 -0.368647117900  1.101666044100
H    1.810587297000  1.484719886300  2.761598515800
H    1.869688270400  3.654508221600  1.181453234000
H    0.227470720500  3.289081795500  1.784553156000
H    0.117414019000  3.146715653700 -0.796113244500
H    1.717422243300  1.175731077000 -1.593228420800
H    2.471164814800  2.761217549900 -1.340042426800
H    3.353782155600 -0.386295131900 -1.847981161500
H    3.456586527700 -2.812530049500 -2.197633681100
H    3.180067678500 -4.355680912600 -0.292143522400
H    2.833370154900 -3.452471589400  1.979722593100
H    2.728172636700 -1.019433584300  2.335989760600
H   -3.145587196100  1.784872962800 -0.881160220700
H   -5.384547237700  1.217507765500  0.044989217600
