43
-65.59083715
C   -4.898427335700 -2.420642308200 -1.769484480500
C   -4.022545050100 -1.462127143700 -1.025676212900
C   -4.152422618100 -0.091123030500 -1.238179055600
C   -3.345253174300  0.808871682000 -0.565520882200
C   -2.404918992400  0.333688491100  0.328097333500
S   -1.294394712500  1.447048810800  1.168134808000
O   -1.688426680100  2.814204226200  0.902164288500
O   -1.165736194000  1.061047263100  2.551152469900
N    0.140685915300  1.053152105100  0.396221747800
C    1.363113681800  1.106681787000  1.200157559300
C    2.371014097100  1.766720917400  0.264549304600
C    1.481322591400  2.799007587400 -0.425840591900
C    0.398787797200  1.802643388000 -0.833185581800
C    1.070628824100  0.875383300100 -1.844277864500
P    2.820835412800  0.642589262800 -1.195238441700
C    2.796892481200 -1.019171429300 -0.407559866400
C    1.669738692500 -1.800519303400 -0.173932504800
C    1.800340252000 -3.052320160400  0.402282366500
C    3.049499765200 -3.539236164300  0.751511052000
C    4.177280619500 -2.768304957400  0.521970791000
C    4.050411339400 -1.520590233200 -0.060560881900
C   -2.259288916500 -1.020246143400  0.559590666500
C   -3.069002678000 -1.914903363800 -0.118245831500
H   -5.947020924200 -2.180769060900 -1.602548229100
H   -4.709578020400 -2.346928789300 -2.839584154800
H   -4.717236077600 -3.443667160600 -1.452875715400
H   -4.891690837700  0.271471906800 -1.936875073500
H   -3.433296533300  1.874331615900 -0.712525048500
H    1.194264742600  1.712106795000  2.098610023300
H    1.641842320500  0.100044784100  1.519103744800
H    3.247283010300  2.157854496000  0.780417893500
H    1.950139090600  3.285334476900 -1.280393460700
H    1.099719356900  3.549515441900  0.267902502400
H   -0.534873084600  2.238659827700 -1.190135980700
H    0.536221926600 -0.063719822100 -1.976646592100
H    1.131646625400  1.369562451600 -2.817369735200
H    0.685216543600 -1.430647347300 -0.418420420200
H    0.919500590200 -3.652284541100  0.581393563700
H    3.143305463900 -4.517414370400  1.200337147100
H    5.154523366000 -3.142324100100  0.791111351800
H    4.928518187300 -0.918040708600 -0.252368867800
H   -1.520273086300 -1.346086063600  1.274259122400
H   -2.960008387800 -2.974437742800  0.059379940200
