43
-65.59148439
C   -4.826098221200 -2.468167319500 -1.790297059400
C   -3.984742745800 -1.490517544800 -1.031472593900
C   -4.207320204400 -0.121548659000 -1.142344500700
C   -3.412962169400  0.782153375600 -0.456135502800
C   -2.393504612300  0.310802231800  0.346051545700
S   -1.310568472000  1.436164264000  1.206493066900
O   -1.735607204600  2.797327756100  0.956372398500
O   -1.179014822500  1.035921256900  2.585687502000
N    0.132010349200  1.085685791500  0.437780647200
C    1.354155743300  1.082994858200  1.239525524300
C    2.375810304000  1.766858231200  0.332237310500
C    1.501332782300  2.828435307500 -0.334020845200
C    0.407374658600  1.858095650600 -0.770559830400
C    1.060579280700  0.924651888000 -1.788481458500
P    2.824845856000  0.700874285600 -1.165994650700
C    2.798788887500 -0.986483448300 -0.453142675500
C    2.142912802800 -2.044806704500 -1.072489140700
C    2.222824034000 -3.322129839800 -0.544942868200
C    2.977273663500 -3.563416400100  0.590762498900
C    3.670335182300 -2.522830387000  1.189289838700
C    3.591094322800 -1.246280698300  0.665076989600
C   -2.151553588700 -1.044395689300  0.473084008600
C   -2.948034252300 -1.940403716300 -0.215319891700
H   -5.014469365000 -3.358075911100 -1.194723515100
H   -5.774722810000 -2.024513185300 -2.079561928300
H   -4.303992019600 -2.776743080500 -2.696134189000
H   -5.007740445400  0.241959472900 -1.769466904600
H   -3.571080717100  1.847396823300 -0.525891773500
H    1.196909706200  1.649418470600  2.165137481500
H    1.612046250000  0.057032976600  1.510444303200
H    3.246965634800  2.143343718300  0.867174552200
H    1.980271323100  3.329715857400 -1.174504407700
H    1.126131535300  3.566381299000  0.376339090900
H   -0.517823613100  2.314701572000 -1.123605366500
H    0.519434947800 -0.017528686100 -1.859167371900
H    1.086349325800  1.391705259700 -2.775523219600
H    1.570371170600 -1.877941479000 -1.973450551500
H    1.697614100700 -4.134185743800 -1.027104623200
H    3.036121119000 -4.560488318200  1.002151703100
H    4.275958774800 -2.707973711100  2.065001686600
H    4.140591998600 -0.436975739000  1.127324356600
H   -1.347445910700 -1.371409857300  1.112978834800
H   -2.766501823600 -3.000657921200 -0.120568114500
