43
-65.59159829
C   -5.261944939500 -2.202685992200 -1.412276754000
C   -4.266658629400 -1.305282054700 -0.746292718800
C   -3.153464443300 -1.825935044500 -0.092495627500
C   -2.237204371600 -0.988043568200  0.518935844700
C   -2.436999992200  0.378111243400  0.475014199200
S   -1.215303029400  1.423997045200  1.245071265500
O   -1.555929514500  2.813455079600  1.020948806300
O   -1.013418572300  1.021099990000  2.614640806000
N    0.144267717800  0.962895347300  0.382350070400
C    1.430602318300  1.083288333800  1.069289767400
C    2.335128165900  1.748215557500  0.032057703300
C    1.346589336000  2.695298156800 -0.647361355000
C    0.286749345500  1.629557213400 -0.909839390900
C    0.918655854900  0.639249143600 -1.886807049400
P    2.740075027000  0.588954019100 -1.406705787700
C    2.896217041900 -1.030301172400 -0.564962494000
C    3.777071655400 -1.142602797600  0.510445383300
C    3.990782069700 -2.365370254500  1.118752808900
C    3.345833181600 -3.497943955600  0.647039617500
C    2.502906620400 -3.402508834500 -0.447350810700
C    2.287481496900 -2.179319825000 -1.058425773800
C   -3.533517940300  0.920424033800 -0.167033263100
C   -4.445438374400  0.076239013200 -0.775309200200
H   -6.252570628600 -2.044448963400 -0.989198226400
H   -5.317960846800 -1.977463543600 -2.476157763100
H   -4.991256296600 -3.247269742700 -1.289036548700
H   -3.002365563400 -2.894640734500 -0.061166947600
H   -1.369358100200 -1.370656200400  1.032209503200
H    1.317781918900  1.709195003600  1.962277400600
H    1.766711107900  0.094606873800  1.388764345000
H    3.216414631500  2.220309838800  0.464715712700
H    1.727885781300  3.146818285300 -1.562755748900
H    0.977238156100  3.469399815000  0.026632761600
H   -0.687455257100  1.999766034300 -1.231739110300
H    0.441229819000 -0.336853972600 -1.816228749500
H    0.828580196500  1.003353045100 -2.912582681900
H    4.289622631400 -0.261557856100  0.873025489600
H    4.664069540900 -2.436547772800  1.961052895400
H    3.510283481200 -4.452977167800  1.124220882000
H    2.014483535900 -4.286620480700 -0.831560695700
H    1.647010248300 -2.124584617100 -1.927010236600
H   -3.653025366400  1.992990440800 -0.177382578100
H   -5.305877808200  0.491459932200 -1.278687223800
