43
-65.59239724
C   -4.270577326600 -3.425843722700  0.043505403000
C   -3.578217737500 -2.104073327000 -0.071528345200
C   -3.124633467400 -1.641932629200 -1.304085645200
C   -2.472500664200 -0.425585276000 -1.405859457000
C   -2.277890960400  0.335097028300 -0.269315107300
S   -1.400884401600  1.880460472000 -0.411903087300
O   -1.616070385100  2.433985059400 -1.726735413500
O   -1.725975261700  2.722900811600  0.719050433800
N    0.183765793100  1.339339551700 -0.332737543100
C    0.742558919600  1.249935249200  1.015114100700
C    2.172258497100  1.755872405900  0.843300802400
C    1.950964845800  2.880772074900 -0.167199677500
C    1.174351103500  2.024137896100 -1.164308061600
C    2.182666452000  0.992858799200 -1.671736504400
P    3.233073488400  0.559191133400 -0.173747632800
C    2.587772909800 -1.072551973100  0.378410593200
C    1.415563008800 -1.681768035400 -0.058698436400
C    1.059293812000 -2.928642806700  0.425320085000
C    1.862828570600 -3.581568496000  1.345921631300
C    3.032407871500 -2.983421121700  1.785531056700
C    3.393889592000 -1.740548108700  1.298848097200
C   -2.713674062600 -0.103591399700  0.966023977300
C   -3.362210272900 -1.322053695300  1.060761898000
H   -5.072064182600 -3.378173211000  0.776662656600
H   -4.680523851200 -3.735808622900 -0.913793054000
H   -3.562342465200 -4.185996528300  0.373396164500
H   -3.285286454300 -2.237166104200 -2.190716980000
H   -2.124010547000 -0.043207184500 -2.352425801800
H    0.175364031400  1.905052451800  1.688051452100
H    0.674920216400  0.224403444600  1.384681940900
H    2.644360679400  2.042614707800  1.782536293000
H    2.871503393300  3.284624125600 -0.586797109100
H    1.341792764900  3.688205060500  0.242348579300
H    0.656982695400  2.555936051800 -1.963311283500
H    1.706135190300  0.124168898900 -2.122856328100
H    2.832321481800  1.449135907200 -2.423306172700
H    0.765274095200 -1.181101540300 -0.760644147000
H    0.147598028900 -3.393529086200  0.079541847000
H    1.578989236500 -4.555266026500  1.717761974000
H    3.664597827800 -3.488034059200  2.501794567300
H    4.311298057400 -1.272047488900  1.629931637100
H   -2.551826419500  0.522326889700  1.829570140800
H   -3.709382859700 -1.668963524000  2.022638087800
