43
-65.59273241
C   -3.860652995100 -3.596376058500  0.247892655700
C   -3.279395939300 -2.225561848400  0.099053275200
C   -3.438828273900 -1.269644215700  1.097201133500
C   -2.907172519800  0.000927773900  0.951347853800
C   -2.218190698000  0.315070387600 -0.202407613200
S   -1.429740206200  1.902366502800 -0.386761728800
O   -1.635617683700  2.414834992600 -1.719097741900
O   -1.811178261700  2.765142890700  0.712261557400
N    0.165223805100  1.421458125800 -0.275741436000
C    0.629127587600  1.162590213200  1.083130769100
C    2.066231556100  1.680138735200  1.069400591300
C    1.899435514000  2.933725234000  0.209960184500
C    1.190358481600  2.224792023800 -0.940657305100
C    2.224597264000  1.264209790500 -1.527148235600
P    3.190528020100  0.633861804400 -0.038342794800
C    2.498510623800 -1.044541812100  0.213207517700
C    2.382144988600 -1.527990235000  1.516479326700
C    1.926014769900 -2.811297086400  1.752524603000
C    1.601888764900 -3.639457825700  0.689579000900
C    1.762351611900 -3.184525463100 -0.608066298100
C    2.219881941900 -1.900119499500 -0.846788518000
C   -2.050892457700 -0.614931634400 -1.211180845500
C   -2.582525672700 -1.881463519300 -1.058025445300
H   -4.784000164200 -3.668377305800 -0.326947784600
H   -3.173002691700 -4.348219895700 -0.131880749500
H   -4.089096766000 -3.813118705500  1.287628646500
H   -3.979591527700 -1.520335680600  1.997679779200
H   -3.017407672100  0.755685040600  1.714569860100
H    0.017352753200  1.732663844300  1.794720176400
H    0.534505595400  0.099181865300  1.311394556800
H    2.478386807000  1.844784943400  2.064412836800
H    2.841213480800  3.388779893600 -0.094553915400
H    1.262237143400  3.678939891900  0.688417666200
H    0.714159056800  2.859983852500 -1.688555805200
H    1.743745590400  0.461646533600 -2.083360872600
H    2.904615691000  1.796357782500 -2.196342164400
H    2.646140870200 -0.886575072300  2.346845466600
H    1.825809521500 -3.167889173500  2.767687259700
H    1.240757566900 -4.640615994700  0.873425518000
H    1.535726288100 -3.834784279200 -1.440829683700
H    2.363928771000 -1.569444860400 -1.865299606500
H   -1.511212964900 -0.325903474800 -2.098680804100
H   -2.455207605500 -2.614670777700 -1.840380349700
