43
-65.59170135
C   -5.468842654700 -1.533315279200 -2.089598597000
C   -4.445451936900 -0.896072695300 -1.203340335400
C   -4.569429134800  0.429804243100 -0.801903351700
C   -3.621017194500  1.009986451200  0.024790586600
C   -2.546057863400  0.256180310000  0.451033292500
S   -1.290982137100  0.969542948100  1.497609577700
O   -1.545598947100  2.385056686200  1.667504184500
O   -1.154536394100  0.194884000500  2.705518751600
N    0.076990526500  0.680689043200  0.568721247800
C    1.346988894200  0.771689034500  1.292951268700
C    2.198191139700  1.709884616900  0.435727474200
C    1.132920363000  2.668746826600 -0.094575720700
C    0.188205399700  1.574493424800 -0.581976373300
C    0.934061046900  0.829960343700 -1.689410466000
P    2.746551121900  0.893378231800 -1.177621741500
C    3.088524768500 -0.824675585700 -0.643582203500
C    2.629072258700 -1.924732054800 -1.359905868500
C    2.990351083600 -3.206147253300 -0.981024495500
C    3.831989818800 -3.403713815400  0.100671924600
C    4.327654012200 -2.311199100800  0.794895137300
C    3.968087394200 -1.030596090500  0.418875436900
C   -2.401634468900 -1.065353614500  0.069895598400
C   -3.350867100300 -1.636001517900 -0.756900293600
H   -6.036576458700 -2.273389668000 -1.526521038100
H   -6.160719392600 -0.794256188700 -2.483170163000
H   -4.987535588300 -2.047095783400 -2.919151954100
H   -5.412060400700  1.015742210100 -1.137478026300
H   -3.696197765600  2.037790750100  0.345547241900
H    1.170998669600  1.191282059700  2.290255776600
H    1.768195305400 -0.228616066900  1.414289833200
H    3.016655904900  2.174418030700  0.984292419900
H    1.484519083500  3.314327425900 -0.898992052400
H    0.675045120800  3.266126469600  0.694729852200
H   -0.808836684700  1.905727009700 -0.876467998100
H    0.564847518000 -0.189693837500 -1.788999216800
H    0.813147734700  1.344652378300 -2.645036091800
H    1.991833070100 -1.783694165200 -2.221229952800
H    2.617523031100 -4.054618666600 -1.536859291200
H    4.111010440900 -4.404638140600  0.395827757500
H    4.998641028800 -2.458275160400  1.629148408100
H    4.363853145900 -0.178409976000  0.955022756200
H   -1.548959483300 -1.619244669700  0.429031080200
H   -3.246721625300 -2.666598484800 -1.061943434400
