43
-65.59160161
C   -5.140827194700 -2.107774037900 -1.911123499300
C   -4.210542080700 -1.262777739700 -1.098840566200
C   -4.438631727500  0.099548171700 -0.935038722600
C   -3.565202777200  0.879090242400 -0.194097592300
C   -2.460300264700  0.289010019600  0.385285914500
S   -1.299007363300  1.252198084900  1.335816605000
O   -1.657231491300  2.653255616700  1.261343010200
O   -1.160142818300  0.689785722800  2.656300773600
N    0.113266736900  0.919343804700  0.499230863500
C    1.357422461400  0.959756342100  1.268312409500
C    2.308888599600  1.757562058100  0.377236711400
C    1.346661414200  2.777896160100 -0.230174560300
C    0.317425636000  1.748093800300 -0.686542693000
C    1.016016229200  0.896585293100 -1.745497870500
P    2.808410072600  0.795235268300 -1.172752973000
C    2.936394678400 -0.918667034700 -0.539436418100
C    2.374629691600 -1.996351734100 -1.215791079300
C    2.567207573800 -3.287838359700 -0.756564922700
C    3.341430862900 -3.521347392100  0.367448066800
C    3.941468579600 -2.457072853300  1.021999905100
C    3.750529006300 -1.166280014800  0.565453716100
C   -2.210971775300 -1.063125830400  0.237830599500
C   -3.085910630600 -1.833814110500 -0.504373779300
H   -6.078840679300 -1.591484957200 -2.094298295800
H   -4.683422002800 -2.341516901200 -2.872291546800
H   -5.344908060100 -3.047928595000 -1.403641534800
H   -5.305725071900  0.556429469300 -1.388246673300
H   -3.724338326100  1.937327560700 -0.054189098300
H    1.186375859800  1.465956895300  2.225600032600
H    1.688856976700 -0.059248215900  1.478625397400
H    3.158555641300  2.175752748600  0.915697418800
H    1.771835007700  3.345778404900 -1.057171727600
H    0.930337262600  3.456658542400  0.515392769400
H   -0.642722637600  2.150298853100 -1.012357671900
H    0.548709517800 -0.083372591400 -1.828970958700
H    0.978447254300  1.390155626900 -2.719091721300
H    1.788821834400 -1.831367083600 -2.108702940700
H    2.114985682800 -4.116468102500 -1.282564511300
H    3.487661890000 -4.529661372800  0.726275326500
H    4.561862832900 -2.634479148500  1.888889774100
H    4.228600844600 -0.337880173200  1.071023495600
H   -1.338229915800 -1.485596608400  0.709771653200
H   -2.899539905600 -2.890590194400 -0.625050799700
