43
-65.59278535
C   -3.618688260800 -3.689901570400 -0.095581525500
C   -3.128652009100 -2.276411336100 -0.128370454900
C   -3.100066252200 -1.503190836100  1.027875961300
C   -2.620284178100 -0.204664673100  0.998343940900
C   -2.170549494700  0.322063975700 -0.195656843400
S   -1.424480437500  1.939723081700 -0.231152551400
O   -1.636534116700  2.565276140800 -1.513223499200
O   -1.827546351000  2.687930913700  0.941250742200
N    0.177567793600  1.484931116800 -0.147560261300
C    0.669307794900  1.174658446200  1.189438083700
C    2.122947213000  1.638933704500  1.139714214100
C    1.970342785500  2.929211658000  0.333575551800
C    1.198494041700  2.288925946200 -0.817165173000
C    2.184773230500  1.326589275100 -1.478518355600
P    3.163308744100  0.590765106600 -0.047669203900
C    2.398168430300 -1.061978440200  0.161807179100
C    2.022684701000 -1.855540285500 -0.916077368900
C    1.508405751900 -3.123522572800 -0.706369511000
C    1.385661293600 -3.624606092600  0.578192899400
C    1.804685712400 -2.860780400900  1.656084302100
C    2.318092563700 -1.594383784600  1.448882236600
C   -2.192050596200 -0.424062807700 -1.358547684200
C   -2.674963037900 -1.718917687000 -1.322241864000
H   -4.225442857500 -3.907271204000 -0.971489984200
H   -2.768871502200 -4.372245612400 -0.100779835100
H   -4.204106982000 -3.879978841400  0.799625623500
H   -3.453623025800 -1.919206567300  1.959547198100
H   -2.595681055400  0.412388040900  1.882998777700
H    0.101151548500  1.748386308800  1.933945753400
H    0.541249263400  0.110119917000  1.394741502300
H    2.578174367900  1.750577787300  2.123266557300
H    2.916144774200  3.363847849400  0.012364033900
H    1.377638690400  3.676725576400  0.862830892900
H    0.714067726000  2.967032175100 -1.520704152000
H    1.664855629800  0.569814155100 -2.062806009600
H    2.867100044600  1.869967931900 -2.136349250100
H    2.134348155400 -1.490537425700 -1.926642210000
H    1.206263574900 -3.724041323500 -1.552341281600
H    0.980882315700 -4.612859128700  0.739638187900
H    1.733804014400 -3.254647992200  2.659807526900
H    2.656039186000 -1.003540740700  2.289920515900
H   -1.839062498400  0.028629332500 -2.271487383600
H   -2.697691049500 -2.307881064200 -2.227007969000
