43
-65.59172516
C   -5.602843914000 -1.898685611000 -1.408499800900
C   -4.520865552700 -1.099334545300 -0.753470458800
C   -4.594281787900  0.289717568100 -0.705934933500
C   -3.603906255400  1.029079585000 -0.081601077500
C   -2.536021105200  0.372799702600  0.498054229700
S   -1.231052087100  1.288691850400  1.296234999300
O   -1.475854948700  2.708626912400  1.150536748700
O   -1.042015320700  0.806418852400  2.641497217400
N    0.094642203000  0.780740031000  0.398425291600
C    1.393574005400  0.991016232500  1.042475214400
C    2.218718371100  1.734112273400 -0.009990453000
C    1.139841126400  2.576938330300 -0.689161615900
C    0.175407365000  1.416340850200 -0.914578940600
C    0.883193764200  0.452001538000 -1.867142420900
P    2.713149539700  0.610331606000 -1.445239355000
C    3.078965366400 -0.970224960200 -0.596017932100
C    3.981399379800 -0.969039256100  0.467067797200
C    4.354252238600 -2.154497496100  1.072478228000
C    3.849459686000 -3.359562772400  0.609719247400
C    2.985433457900 -3.372567927400 -0.472349765400
C    2.610440585600 -2.187020195400 -1.080358982400
C   -2.440603451100 -1.005917622700  0.466970940400
C   -3.433140404800 -1.737037565800 -0.159685343000
H   -6.336226970200 -2.201894812000 -0.660930237600
H   -6.116152978700 -1.312454413500 -2.165908289100
H   -5.198086840200 -2.798741908300 -1.864074720100
H   -5.431880930900  0.797547025300 -1.160404644900
H   -3.640618302600  2.106695594100 -0.033705121600
H    1.259685772500  1.595737378100  1.946583799900
H    1.812093922900  0.026300314500  1.337506536800
H    3.054738831000  2.292097400700  0.409925179000
H    1.467442391700  3.042682559700 -1.618311842600
H    0.710027947600  3.326405145700 -0.023536996300
H   -0.828484575600  1.691110750800 -1.241718669700
H    0.513364948100 -0.564194272600 -1.737414978400
H    0.726537745100  0.755649486900 -2.904416502800
H    4.384417291200 -0.030213696500  0.822599373300
H    5.042587171100 -2.139489555200  1.905420791000
H    4.138730352800 -4.285647855300  1.084593636000
H    2.605716117300 -4.311672574100 -0.848822445700
H    1.955030982000 -2.212026101600 -1.939321490700
H   -1.591996090500 -1.478796656900  0.935047134300
H   -3.366422656100 -2.814369972000 -0.189309371700
