43
-65.59128315
C   -6.630472320300  0.683914641000 -0.037348435100
C   -5.178484346000  0.322186589700 -0.056091839300
C   -4.456303960100  0.320510801100 -1.244966500300
C   -3.116314106600 -0.029762718900 -1.257271659900
C   -2.497863973000 -0.381180849200 -0.074203065900
S   -0.760001367800 -0.782897118000 -0.056053569300
O   -0.513482781600 -1.886216164200  0.837691421200
O   -0.310665591800 -0.939439784500 -1.423314333900
N   -0.155646194600  0.574798767500  0.688266569500
C    0.939108201000  0.453661003300  1.647166507600
C    1.759365549000  1.720665476000  1.408881466900
C    0.653845416900  2.706961841100  1.024110455300
C    0.029408190000  1.816341746400 -0.047910095100
C    1.102461878200  1.679708908500 -1.132758646100
P    2.739963004700  1.655266680400 -0.207539034000
C    3.225219075500 -0.110001877300 -0.284172052600
C    3.884570793000 -0.672391529700  0.808600045900
C    4.336774463200 -1.977370019100  0.760069327600
C    4.156134024700 -2.731718437700 -0.388333546700
C    3.541321838800 -2.166101316200 -1.492432959100
C    3.090033358100 -0.858814363700 -1.447681833300
C   -3.193816162600 -0.387037926900  1.120282371600
C   -4.531293779300 -0.037316909500  1.125319024900
H   -7.232291276700 -0.214048760800  0.101175779400
H   -6.846774052200  1.358115506400  0.788413331400
H   -6.928136265400  1.155506289800 -0.969607441200
H   -4.943863350200  0.594349544400 -2.168789606200
H   -2.539557165300 -0.042899669600 -2.169130010700
H    0.520244377100  0.440095817200  2.662052369500
H    1.483296654400 -0.479552651600  1.494577149100
H    2.367711674400  2.010409110500  2.265052723200
H    1.028323224100  3.645566384200  0.617383938300
H   -0.031668156900  2.900883412800  1.847952975700
H   -0.933746062700  2.144386390600 -0.446003357400
H    0.943814393000  0.778649376000 -1.722664466600
H    1.080994180600  2.546198559900 -1.798949575400
H    4.033353477200 -0.081428181200  1.702708799900
H    4.831618023300 -2.408081159100  1.618898568200
H    4.502762960700 -3.754245683100 -0.425453600300
H    3.412382376500 -2.744524584900 -2.396183925100
H    2.625421422100 -0.428859109400 -2.323367320300
H   -2.676361032700 -0.674980261800  2.021538002500
H   -5.083400928400 -0.041820635200  2.053413716600
