43
-65.59169820
C   -5.519514568300 -1.531367897600 -2.057041210700
C   -4.495157271300 -0.898692838100 -1.168658667200
C   -4.555236729100  0.460794540200 -0.875339914600
C   -3.596328144700  1.053816532100 -0.071841513000
C   -2.572918142500  0.280390303500  0.440062198700
S   -1.308313153600  1.007762119500  1.465141215300
O   -1.543026426600  2.431396887900  1.589171701100
O   -1.186120605400  0.269757597400  2.697266959500
N    0.059127011700  0.669783066800  0.549353190300
C    1.326537152500  0.755910961300  1.279249226900
C    2.188734654100  1.691201379400  0.428649761000
C    1.131022560000  2.641467759400 -0.131524145600
C    0.194307354200  1.539233174100 -0.616885524500
C    0.959456714800  0.771663257400 -1.695855267600
P    2.766155946800  0.864781773000 -1.167988366600
C    3.127014094800 -0.843967766000 -0.617985015300
C    2.704081109400 -1.951713916900 -1.345230972200
C    3.082289605000 -3.226429414400 -0.960726803400
C    3.904672466900 -3.409082906500  0.138349887300
C    4.363446228100 -2.308313661600  0.844747421300
C    3.987086834300 -1.034140372100  0.463038251500
C   -2.491047997800 -1.071691113600  0.165028312400
C   -3.452420511600 -1.656374439500 -0.639193903500
H   -5.662400199300 -2.577770527300 -1.800698049400
H   -6.471084938200 -1.011491882600 -1.984198992400
H   -5.186287775800 -1.480686842600 -3.093876734200
H   -5.358724422000  1.059903082100 -1.277181546600
H   -3.625624432200  2.105162554200  0.170573145200
H    1.145786672100  1.173343604400  2.276230864400
H    1.743766764600 -0.246280294700  1.400359046500
H    2.995497331500  2.164027605500  0.987320342300
H    1.495265938600  3.275164948200 -0.939855926600
H    0.659962651400  3.250168617900  0.641123218900
H   -0.796244673800  1.865951376100 -0.936773113700
H    0.601048628300 -0.254171078000 -1.770312425800
H    0.843438023200  1.258329255400 -2.666604762700
H    2.082520298100 -1.820568692300 -2.219578346700
H    2.738275561000 -4.081036741000 -1.525655621300
H    4.197651625900 -4.404795276900  0.437603874100
H    5.019349142700 -2.443780437700  1.692851222200
H    4.354656576800 -0.175402589200  1.008649077600
H   -1.679128893900 -1.639949742900  0.590100028700
H   -3.396405482300 -2.712248402200 -0.858098684200
