43
-65.59233401
C   -6.089996105300  0.392810128200  1.787450023600
C   -4.885555629600  0.310195287100  0.903662181700
C   -4.319416579600  1.461908953600  0.363131487700
C   -3.188819846300  1.388416997800 -0.431541210500
C   -2.620460140900  0.155343444600 -0.690792540400
S   -1.128556172500  0.063666135100 -1.679952142400
O   -1.015891717200 -1.270559086200 -2.212157396800
O   -1.121437791000  1.165711414000 -2.609816168300
N    0.164051682800  0.286266482000 -0.663573294600
C    0.356685687200 -0.698844168700  0.394387934600
C    0.724977441100  0.145623406100  1.617133202400
C   -0.118866181100  1.399081026500  1.379783260600
C    0.336607340400  1.602590676400 -0.063505993600
C    1.838426791300  1.892230451000  0.011790061600
P    2.455484780900  0.890340371200  1.482790106300
C    3.412472116200 -0.454715583800  0.692979351100
C    3.369403882500 -1.735811747400  1.241245477700
C    4.162814752800 -2.744889251800  0.727984202800
C    5.027495881700 -2.482790989300 -0.322863207900
C    5.106010970100 -1.202829693600 -0.845802688900
C    4.312348356300 -0.191073853800 -0.334525967600
C   -3.174321095300 -1.003444583100 -0.179661752100
C   -4.302832643900 -0.921854701200  0.617805539400
H   -5.778357125800  0.403440542000  2.832211022900
H   -6.653782236600  1.301166205600  1.593242558200
H   -6.737063004200 -0.468340742900  1.640716150600
H   -4.767631920700  2.423503928000  0.564054014300
H   -2.749170818200  2.270394683200 -0.870102309400
H   -0.571914454400 -1.254928746900  0.565999694800
H    1.129259337100 -1.410612601000  0.096328356900
H    0.548872942700 -0.365134923000  2.562942998900
H    0.155215166300  2.233266474300  2.024995478800
H   -1.188439625000  1.204033874300  1.459270139200
H   -0.204395061900  2.336822737100 -0.659654758500
H    2.330824712500  1.611646666600 -0.918626855200
H    2.016444845100  2.953827072100  0.197623971600
H    2.705495393300 -1.939244720400  2.070532339000
H    4.110550412200 -3.738071166400  1.150679439400
H    5.646568484500 -3.271409456800 -0.724969833600
H    5.792985674100 -0.989567917400 -1.652373783900
H    4.398927119700  0.809189241200 -0.735202491500
H   -2.727077616300 -1.952096838300 -0.434151340600
H   -4.738823349200 -1.824771044800  1.018774251800
