43
-65.59319685
C   -6.245473464000 -1.010323521900  1.106940168600
C   -4.886088103100 -0.718956783100  0.552993147600
C   -3.860453841300 -1.654680029700  0.641894771000
C   -2.600003047100 -1.372205135100  0.142022835900
C   -2.367143857600 -0.147439151800 -0.450666255500
S   -0.739190759500  0.265920498500 -1.048959131400
O    0.052745885400 -0.941188914300 -1.136990619200
O   -0.849597890600  1.071548574200 -2.240447918000
N   -0.221743664000  1.265325053400  0.184012406200
C    0.357644312900  0.615465427900  1.355761251200
C    1.543303533200  1.511003244900  1.722801775500
C    1.037407591300  2.875894785000  1.247651908500
C    0.626599656700  2.404176529100 -0.143489777000
C    1.917035503500  1.944429239800 -0.831186896500
P    3.009915266700  1.286390734000  0.554262918600
C    3.014376589000 -0.516167772400  0.239054126300
C    2.939775444300 -1.408102141700  1.306995836600
C    3.038079998000 -2.769636200800  1.088685847700
C    3.237260421100 -3.255062739500 -0.193388824800
C    3.355547466400 -2.371842154600 -1.253294893300
C    3.256427053100 -1.009628896700 -1.038385301100
C   -3.369446532600  0.799448096000 -0.550318631800
C   -4.625468267400  0.510267661600 -0.050572867200
H   -7.018826382500 -0.685793300800  0.414396800700
H   -6.367867961000 -2.071318673400  1.305371596500
H   -6.387131942800 -0.467171079600  2.041161636300
H   -4.047813016400 -2.612574207700  1.103918117100
H   -1.793826638700 -2.087650564600  0.192853959600
H   -0.390800091600  0.599143524000  2.157998885900
H    0.637537778000 -0.412441680200  1.113246878700
H    1.821996984500  1.455845388900  2.774692740900
H    1.813100485000  3.640243105400  1.213862067900
H    0.185723329900  3.228857672700  1.827489530200
H    0.056732843300  3.106977323500 -0.753032584500
H    1.697480923500  1.185988678400 -1.583707273100
H    2.414886990900  2.786369674400 -1.319444917900
H    2.796067563100 -1.029980968800  2.310472618800
H    2.960433600100 -3.454707350400  1.921133093900
H    3.308463440300 -4.319330697200 -0.365324793900
H    3.525577660000 -2.745320418800 -2.253148050700
H    3.363567387100 -0.327455780700 -1.870795520500
H   -3.148857098300  1.740291244800 -1.028974525300
H   -5.415050926700  1.242870315400 -0.128056205300
