43
-65.59087088
C   -4.729611433200 -2.641759709000 -1.678371591200
C   -3.919849880400 -1.590718280200 -0.986363365300
C   -3.066433486200 -1.932812986600  0.060668055900
C   -2.297501556700 -0.970038508500  0.688842417300
C   -2.385091291900  0.344117181000  0.270192771100
S   -1.335087275300  1.553571533800  1.053883694200
O   -1.756385136600  2.878199188200  0.652577355300
O   -1.261240930100  1.285942113600  2.469226385100
N    0.140782465100  1.153541120300  0.366986776100
C    1.293916667000  1.035172211800  1.259433459500
C    2.422477765200  1.693228035600  0.470448405200
C    1.670701413400  2.841145271200 -0.200501917300
C    0.558382762100  1.966104582300 -0.773773539200
C    1.246902183400  1.063801361300 -1.796927343600
P    2.919877630300  0.659437356000 -1.038413956300
C    2.737747657800 -1.048551919300 -0.381329290100
C    1.567160879400 -1.798980943700 -0.346164774800
C    1.586106005000 -3.091510238100  0.149580095500
C    2.764903523100 -3.648733705400  0.617408406100
C    3.935359829200 -2.908106362400  0.587558733900
C    3.921339001600 -1.620997434100  0.082895836000
C   -3.223626037900  0.709115294600 -0.764204567100
C   -3.989849410200 -0.260205742700 -1.388996046900
H   -4.136042058500 -3.099838856700 -2.469913832000
H   -5.022506180100 -3.424832898000 -0.983670240900
H   -5.620026631700 -2.212611158500 -2.129801235800
H   -3.007727050000 -2.961042976800  0.385372146400
H   -1.637392137500 -1.210614358300  1.507116829500
H    1.095468392900  1.566120967100  2.197639447500
H    1.473620598000 -0.015790159100  1.496903182400
H    3.274082624500  1.974960591100  1.088773510800
H    2.244649203500  3.353122263200 -0.971942169400
H    1.286793499500  3.564571515900  0.520329258200
H   -0.306516019600  2.499122730900 -1.169074732600
H    0.661413616200  0.178651018400 -2.039082856100
H    1.419687857500  1.617774167300 -2.723307606400
H    0.631955179700 -1.377160955300 -0.683092131200
H    0.672412977000 -3.667856859300  0.171429319500
H    2.771424456700 -4.657836007800  1.003069994000
H    4.858341934400 -3.336317126500  0.951068516200
H    4.834541795900 -1.041525403000  0.045288805600
H   -3.271003770800  1.746885894400 -1.055591040100
H   -4.649828383500  0.020454568400 -2.196292728200
