43
-65.59255875
C   -4.507792707400 -3.335148528500  0.142211684500
C   -3.748719844800 -2.050115080800  0.035593767600
C   -3.945556395400 -1.032515861500  0.964715551300
C   -3.260627374700  0.165737092700  0.856800386300
C   -2.376748058400  0.345826061800 -0.188636581000
S   -1.458448273900  1.864900274500 -0.350138011900
O   -1.671018188600  2.431929752400 -1.659055604800
O   -1.744947623200  2.722766099500  0.781451673100
N    0.112410291200  1.277401901300 -0.311651605100
C    0.562744750500  0.900677463800  1.027100183400
C    1.936043773300  1.563305162400  1.159451660000
C    1.708162029800  2.854608270200  0.373349620300
C    1.133198152800  2.168276026400 -0.862515563600
C    2.261221738800  1.305307091100 -1.429579784600
P    3.239124791800  0.731915317800  0.074307589400
C    2.786845271000 -1.037635253400  0.208256123700
C    2.741278878300 -1.865484420900 -0.908697688200
C    2.495701477900 -3.220097426700 -0.766072073900
C    2.316359941900 -3.768308827100  0.492836592600
C    2.401840627400 -2.958247491000  1.614163730700
C    2.646955571500 -1.604907670600  1.474475617600
C   -2.165099639200 -0.647764716000 -1.125589962900
C   -2.851011249600 -1.842952196600 -1.009612901800
H   -5.442910782300 -3.253859873200 -0.412414982500
H   -3.937800178500 -4.158866892700 -0.279156524900
H   -4.750192427500 -3.558697343800  1.177764672000
H   -4.639579466600 -1.178514822900  1.779026967300
H   -3.397419803500  0.966679870900  1.566919204200
H   -0.133995927700  1.305535770200  1.770847842400
H    0.583465726200 -0.187555476000  1.116784663300
H    2.255456154600  1.694536327300  2.192685205800
H    2.622435541500  3.408904457200  0.163248050600
H    0.974903524000  3.506296582800  0.851092818700
H    0.667876910800  2.815794102700 -1.606513887900
H    1.862334158400  0.473661216600 -2.008635815200
H    2.910095982600  1.902551206700 -2.074096309900
H    2.905677821500 -1.454318231500 -1.894635144500
H    2.451879688200 -3.851597406400 -1.641925567900
H    2.124551553500 -4.825668776700  0.601803027700
H    2.282578041800 -3.383828649400  2.600259434900
H    2.727019249700 -0.976181267500  2.351102964200
H   -1.469904437700 -0.466024102800 -1.929181931000
H   -2.690093866300 -2.624625756700 -1.736879630800
