43
-65.59187087
C   -6.080108017200  0.502036220400  1.821363676500
C   -4.867779417500  0.325599532600  0.962489672900
C   -4.334022309300  1.408677569100  0.267028957900
C   -3.199131378400  1.260727752800 -0.509865634900
C   -2.594551757500  0.020494691800 -0.597079116000
S   -1.095688313600 -0.165027389300 -1.558632224400
O   -0.928293177500 -1.558235418700 -1.885597686100
O   -1.111481370000  0.784884261600 -2.643667065300
N    0.171920228400  0.251907942000 -0.573877577000
C    0.357587113600 -0.537559152600  0.638885043400
C    0.840275170900  0.496685091800  1.652110554500
C   -0.028427889000  1.695119750800  1.268100947100
C    0.331611395600  1.658148828800 -0.215529227900
C    1.820730580700  2.005309974900 -0.265935951600
P    2.569706166500  1.153740915500  1.233608188000
C    3.389029356600 -0.339443029100  0.539613692000
C    4.287128016100 -0.970193416800  1.399203940200
C    4.985112294500 -2.092994124000  0.993891686000
C    4.801537535400 -2.593846541100 -0.284615862100
C    3.915846813700 -1.969479494000 -1.148048381400
C    3.212737620400 -0.847717024700 -0.743837035700
C   -3.112795333000 -1.071608141200  0.072387279900
C   -4.246503012800 -0.914809376900  0.852122325100
H   -5.786996065800  0.897901051800  2.794005038500
H   -6.773479180800  1.207160202300  1.369573894000
H   -6.586849471200 -0.445995002200  1.979676998700
H   -4.812958729200  2.374136604800  0.334034449200
H   -2.785148381300  2.086570192800 -1.066765247700
H   -0.595234159600 -0.978356430500  0.958468306500
H    1.062849130500 -1.349816259100  0.454068098700
H    0.759148960400  0.158513449500  2.684498441700
H    0.275153985100  2.625023351800  1.746808459000
H   -1.088006495900  1.512047014000  1.450191156000
H   -0.266976502800  2.268671135500 -0.891276508800
H    2.287404064200  1.704509512100 -1.202416826900
H    1.957040002200  3.084112914600 -0.152545422900
H    4.432509956400 -0.568676196300  2.393371336900
H    5.675367056700 -2.574768895000  1.671214194900
H    5.347319453900 -3.467853746500 -0.609237712000
H    3.765331530300 -2.359551440400 -2.144867685600
H    2.511778068400 -0.391656046200 -1.427612837800
H   -2.633659606900 -2.031370547500 -0.046430479600
H   -4.654250670400 -1.766610964600  1.375795718000
