43
-65.59163639
C   -5.667633275800 -1.270773842500 -2.100181409700
C   -4.597680465500 -0.744415221700 -1.196340475600
C   -4.621232429800  0.584686413800 -0.780718085300
C   -3.627260867700  1.085809842500  0.041366139400
C   -2.604297753500  0.251362768600  0.449482550600
S   -1.308984481300  0.863672455700  1.511174436000
O   -1.508487052800  2.277660222600  1.752474750300
O   -1.194853463000  0.028153594700  2.680072925800
N    0.049358202700  0.569260044100  0.564547183600
C    1.317113772400  0.666469778800  1.293701062600
C    2.146964738200  1.665230343000  0.483232527300
C    1.057761440000  2.597018422800 -0.046810115300
C    0.160728379900  1.480137205000 -0.572214042300
C    0.956101404900  0.772525887300 -1.671087097600
P    2.758458706500  0.922998539100 -1.140602586900
C    3.193797105100 -0.787207649100 -0.653359353100
C    2.830053905900 -1.881903846400 -1.430761082700
C    3.263680492500 -3.152691590900 -1.094984086800
C    4.082713668000 -3.342780758400  0.005391889100
C    4.482313789900 -2.252571626800  0.762268206900
C    4.051027529000 -0.982207834500  0.428957957100
C   -2.557947799500 -1.071234539600  0.052015877600
C   -3.554836449300 -1.564026199400 -0.771481795900
H   -5.456395843200 -0.978353475900 -3.128834020700
H   -5.715955414700 -2.355228451400 -2.057514097100
H   -6.636861414200 -0.858769352100 -1.829827036200
H   -5.424984640800  1.230543663200 -1.101464776000
H   -3.627288872700  2.111253889600  0.378054312800
H    1.125356807900  1.035439126800  2.307590035700
H    1.767130440700 -0.325734467600  1.371481725700
H    2.933508324500  2.145936985600  1.063560563800
H    1.401625464100  3.270027422600 -0.832039853400
H    0.564680854200  3.161802492100  0.745004511300
H   -0.838791198500  1.783194949500 -0.887997193500
H    0.639584607200 -0.264807549100 -1.772643465000
H    0.819985694100  1.279478984300 -2.628723647700
H    2.211162618000 -1.742324771000 -2.305788857600
H    2.966039598400 -3.997956430500 -1.698938367900
H    4.418927011200 -4.335492738400  0.266759494700
H    5.134958340000 -2.392965458200  1.612085636700
H    4.372727614900 -0.131117041000  1.014027258200
H   -1.746199439000 -1.690424341300  0.398999431500
H   -3.525884843500 -2.596735547200 -1.085411084100
