43
-65.59150320
C   -4.882147158200 -2.587721254000 -1.613537209700
C   -4.009915310200 -1.562730244900 -0.959275187800
C   -4.264994703900 -0.204104673200 -1.116605443800
C   -3.468175738900  0.742083829400 -0.493367009700
C   -2.413369630400  0.324050096200  0.292467114400
S   -1.341670023500  1.507050801500  1.088283180500
O   -1.763261434800  2.845339802500  0.732571700300
O   -1.245290920700  1.203863577600  2.495446725600
N    0.120419899400  1.112378502600  0.377460547800
C    1.307510953700  1.072744916500  1.229608103800
C    2.383100668700  1.750660304100  0.381257339200
C    1.558732556900  2.825765370400 -0.325761338800
C    0.473356139500  1.872331001900 -0.818001826100
C    1.163154391700  0.922997152600 -1.797183492700
P    2.896920698600  0.688798961000 -1.097502658700
C    2.833095595600 -1.001433458900 -0.394186145200
C    2.211087296400 -2.055433499800 -1.054568555900
C    2.263322368600 -3.336319480900 -0.532185967700
C    2.956396853200 -3.585141655000  0.640395299500
C    3.615984146200 -2.548573706300  1.282187868500
C    3.564486796300 -1.268514390100  0.763116316300
C   -2.138602576000 -1.019852246800  0.464572618300
C   -2.937222291400 -1.958499738400 -0.161824626300
H   -5.429585961200 -2.159254250100 -2.448480496000
H   -4.290983875000 -3.429177512300 -1.966524023100
H   -5.605144539800 -2.967640391300 -0.891507944600
H   -5.092592341700  0.118001475400 -1.730965504200
H   -3.648654902200  1.800343400300 -0.602746368000
H    1.118881930800  1.625013848200  2.157449216400
H    1.535324981600  0.037339332700  1.492249186100
H    3.228846674700  2.114147796200  0.963811742900
H    2.087071220500  3.320607319100 -1.140110872400
H    1.158894438500  3.568694912100  0.365783325900
H   -0.423663536000  2.343182474500 -1.221006621900
H    0.617100274700 -0.015274866500 -1.882460181100
H    1.235730593900  1.379893507000 -2.786581075000
H    1.687555344400 -1.881715317200 -1.983719363600
H    1.765184717800 -4.145289395200 -1.047158820500
H    2.993864772600 -4.584966129900  1.047582635300
H    4.173858831900 -2.739590291300  2.187816602200
H    4.087819435200 -0.462215828500  1.259530390800
H   -1.306097221000 -1.305978486400  1.087518379000
H   -2.729224361600 -3.010232321600 -0.032681753900
