43
-65.59189342
C   -6.084739407500  0.477787791200  1.813589092200
C   -4.854345613100  0.319030589100  0.977289067800
C   -4.326712206700  1.406049370200  0.283831786300
C   -3.197401019500  1.262944025300 -0.502418118500
C   -2.593137060700  0.023611280800 -0.601217986200
S   -1.094883833200 -0.153743479500 -1.565064234400
O   -0.926422039100 -1.544602961800 -1.901387326300
O   -1.112029882600  0.803137704300 -2.643950366000
N    0.172428350600  0.258134913200 -0.577830934800
C    0.355724510000 -0.535149884500  0.632800460100
C    0.837956961400  0.495403795200  1.650102602400
C   -0.028213650900  1.696282354500  1.268105691600
C    0.334105981000  1.662990118600 -0.215058462600
C    1.824012045500  2.007380607400 -0.262138104800
P    2.569001653700  1.151145280800  1.236748159000
C    3.386435404100 -0.342893034300  0.542460239200
C    4.277642958800 -0.979407979900  1.404949865100
C    4.972179732600 -2.104724490400  1.000699512600
C    4.792174989000 -2.602247272900 -0.279617700700
C    3.913624022600 -1.971918591400 -1.146014504700
C    3.213859541300 -0.847700198000 -0.742833750100
C   -3.107086283500 -1.073133672600  0.064338229200
C   -4.234751791500 -0.921239843800  0.853319276900
H   -6.120623369300 -0.271776044400  2.599630089700
H   -6.125355526500  1.468242867000  2.259694977900
H   -6.969630745400  0.354882941100  1.188643682400
H   -4.804406442900  2.371366753800  0.361049664100
H   -2.785705024500  2.092979462500 -1.054784450200
H   -0.597933517800 -0.975948943700  0.949850748000
H    1.060448642000 -1.347528685300  0.446451307100
H    0.754281451500  0.154213214600  2.681294814200
H    0.276143337300  2.624292512100  1.749988462200
H   -1.088343048000  1.514423452600  1.448130325000
H   -0.262266993400  2.276556010000 -0.890032359700
H    2.291595350100  1.707801365500 -1.198547692400
H    1.962260022500  3.085656579100 -0.146106787500
H    4.420172546700 -0.580567786400  2.400609293700
H    5.657043395500 -2.591020853400  1.680272087400
H    5.335244591700 -3.478273330000 -0.603355638400
H    3.766140134700 -2.359194264900 -2.144371181800
H    2.518344242600 -0.386902734600 -1.428986036900
H   -2.627106664100 -2.031507533200 -0.062114550000
H   -4.638329411000 -1.775709700700  1.375927331900
