43
-65.59080333
C   -5.226053603600 -1.779893194000 -2.087514918400
C   -4.266155653000 -1.059822496800 -1.193891056700
C   -3.249995037900 -1.751611939100 -0.538374082900
C   -2.347590375800 -1.082476720500  0.268493513600
C   -2.461077083300  0.286532920100  0.419203907600
S   -1.246371715200  1.117105709000  1.425574250300
O   -1.551126061700  2.530681756100  1.494788605900
O   -1.090203907500  0.428045554800  2.681615967700
N    0.136281042700  0.818333540300  0.521617075600
C    1.397755939300  0.934612625100  1.258879718400
C    2.282572374500  1.752184242400  0.323142364400
C    1.260835030700  2.740232560500 -0.236895968400
C    0.252454943600  1.675401096200 -0.659577088100
C    0.943430706600  0.889162494400 -1.772017944200
P    2.744140873400  0.780487259200 -1.238545789200
C    2.921113515600 -0.924468680500 -0.572278189800
C    1.887006925900 -1.825663450900 -0.340563184800
C    2.165035199900 -3.092513584200  0.142783380600
C    3.471437937500 -3.476040085600  0.399268868500
C    4.507684045900 -2.585790750800  0.169673244000
C    4.233061800200 -1.321899632700 -0.319665116200
C   -3.461430847500  0.995264809400 -0.216811594900
C   -4.362227011100  0.318517857100 -1.021041064500
H   -4.873350046100 -1.731642586400 -3.117989220600
H   -5.309188148000 -2.826399815700 -1.807315297400
H   -6.210086696900 -1.319679922500 -2.049437093400
H   -3.167665523100 -2.821286163800 -0.660977019200
H   -1.559586181800 -1.596957170700  0.795055539600
H    1.227417349600  1.461521188600  2.205719019800
H    1.784465027400 -0.059910598100  1.490113221100
H    3.148692187600  2.188505869900  0.819505901600
H    1.629389395400  3.329197012300 -1.075857620400
H    0.853021985300  3.397481672500  0.532319060900
H   -0.736958943200  2.043498528800 -0.935089946400
H    0.489536786100 -0.084893654500 -1.944885947300
H    0.899320689400  1.453418898800 -2.707157123500
H    0.861131329200 -1.537544745900 -0.513637386100
H    1.355430586900 -3.785396351300  0.323452341100
H    3.680683547500 -4.466537846900  0.776358235900
H    5.528747861500 -2.879027937700  0.366737701200
H    5.038992222300 -0.625418342200 -0.510412388600
H   -3.520655243200  2.062457022400 -0.066516028200
H   -5.148079866900  0.865988623900 -1.519767761900
