43
-65.59272835
C   -3.772684625100 -3.643091208300  0.021489495800
C   -3.238093081200 -2.247629227800 -0.057306259700
C   -3.409911885100 -1.352324707700  0.993030556300
C   -2.892926484300 -0.069023794600  0.920588405900
C   -2.206537412700  0.318285215900 -0.211924991900
S   -1.433367699600  1.921031645700 -0.303094014900
O   -1.627770319500  2.500798568100 -1.609309583500
O   -1.836369263600  2.720940247800  0.834949392800
N    0.163566851100  1.448601197700 -0.195904106400
C    0.620420144100  1.137044467200  1.153841931700
C    2.061374751200  1.643313618500  1.161969911000
C    1.905225817000  2.930724035800  0.351743929300
C    1.193461571500  2.272443628900 -0.827020281800
C    2.223347116800  1.330036212300 -1.449691815400
P    3.180017938600  0.633168936700  0.015450167900
C    2.474917284800 -1.049011422400  0.193448805000
C    2.209110299000 -1.859694710000 -0.904601521400
C    1.742022163600 -3.150271624200 -0.725533173700
C    1.558112137800 -3.656065822900  0.550022720700
C    1.869522740500 -2.873423142200  1.650541151600
C    2.336291992900 -1.584308866000  1.473977829800
C   -2.026934642200 -0.550968851500 -1.271724709900
C   -2.543997141000 -1.829840147400 -1.192009011100
H   -2.948281348700 -4.349501852100  0.113711573000
H   -4.428651021400 -3.763519837300  0.878867356700
H   -4.322589786700 -3.892126962600 -0.883719973600
H   -3.949305852500 -1.659353559300  1.876711799100
H   -3.014446096200  0.640175055500  1.724671350200
H    0.010930363100  1.685769118300  1.884074280100
H    0.516283936600  0.066918420200  1.343120833600
H    2.473560998900  1.765993436000  2.163024750900
H    2.850815502700  3.390309865800  0.066578457500
H    1.273008116700  3.661517519700  0.858132336000
H    0.721907771600  2.939510733300 -1.549670044800
H    1.739104110900  0.553588109500 -2.039011476900
H    2.908683848000  1.884485293600 -2.094893588300
H    2.370968895900 -1.488471809200 -1.906312590700
H    1.525540624000 -3.765080194800 -1.587329200500
H    1.189183992700 -4.661861947000  0.687581132100
H    1.751120914000 -3.270081027300  2.648803820300
H    2.591851203700 -0.979385571700  2.333823503000
H   -1.490854988500 -0.204848590000 -2.140812635400
H   -2.407783305500 -2.516194772800 -2.014361438100
