43
-65.59082562
C   -4.731887449300 -3.117654039100 -0.752295333000
C   -3.884926893800 -1.911573181500 -0.491162051000
C   -2.510616167500 -2.021368613900 -0.311656768600
C   -1.733113335400 -0.900267033700 -0.068616740100
C   -2.336224938800  0.339328899300 -0.005716599000
S   -1.386752682100  1.818495858400  0.325198139000
O   -1.764976066300  2.822715863600 -0.642704198800
O   -1.557075230000  2.164955662300  1.719744028100
N    0.184894110200  1.328796132400  0.038906947200
C    1.049199906000  1.131264319500  1.199772806300
C    2.400753472600  1.677830095200  0.740472934100
C    1.955583964900  2.858869561400 -0.121560258400
C    0.961984649700  2.058479496200 -0.959522743200
C    1.798945745200  1.044267703500 -1.739704296000
P    3.206076741200  0.582627762800 -0.574887033500
C    2.739175411700 -1.099888089900 -0.021407945300
C    2.259844549400 -2.055750500900 -0.911344521300
C    2.007387032200 -3.347416600600 -0.482384369800
C    2.248902965300 -3.706194376600  0.833119514800
C    2.766876906700 -2.771858556500  1.716337165600
C    3.022358443100 -1.481817378900  1.289855775600
C   -3.701734226800  0.473948113200 -0.179842438800
C   -4.470994652300 -0.648986102600 -0.422941826400
H   -5.295824511800 -2.990104960100 -1.674640746600
H   -4.123020141200 -4.013456375600 -0.832779332200
H   -5.448489612000 -3.253416534300  0.056498106400
H   -2.039952262600 -2.991864173600 -0.361747403700
H   -0.666728118700 -0.983259316200  0.063228477400
H    0.653743799700  1.699097919600  2.050317562100
H    1.071111599300  0.074115332400  1.475080184300
H    3.070753775700  1.923249519900  1.563651390500
H    2.756161765300  3.293068011700 -0.719522967700
H    1.462757561700  3.637328195600  0.462696465300
H    0.281107296600  2.636595359600 -1.584038250400
H    1.198772543200  0.184021694600 -2.033123724200
H    2.214732154300  1.504219853700 -2.638851050100
H    2.088957956500 -1.795986155100 -1.946385912000
H    1.624569879900 -4.077807326200 -1.180768213700
H    2.048075468000 -4.713605394300  1.166971324600
H    2.976355229200 -3.051005040400  2.739044162600
H    3.439775158600 -0.757822874600  1.976786345900
H   -4.137406658100  1.459964504200 -0.129120697200
H   -5.537126286000 -0.547741638900 -0.562276179300
