43
-65.59237756
C   -6.061944118000  0.492932879300  1.874246649600
C   -4.852129088700  0.330027407900  1.009195661100
C   -4.246822942600 -0.914850008800  0.862308740600
C   -3.138766326800 -1.071359930600  0.046873761400
C   -2.628636742100  0.025638051900 -0.621274138200
S   -1.158819390000 -0.157712765600 -1.630070866400
O   -1.025582475300 -1.546294257600 -1.991063838100
O   -1.200022666600  0.816276632100 -2.692649245000
N    0.149479913700  0.220568628500 -0.682908269500
C    0.376541888000 -0.604635690300  0.497722059500
C    0.781479415900  0.405508203300  1.574041222500
C   -0.083830418300  1.607699298200  1.192933753700
C    0.321272229700  1.610125612900 -0.279275494500
C    1.820204740600  1.921990485300 -0.296003160300
P    2.500944478400  1.127618477400  1.270339658300
C    3.426500147400 -0.317426442900  0.633249621000
C    4.264747482100 -0.214680145100 -0.471788098800
C    5.028384712300 -1.296905052100 -0.873046596700
C    4.982505615700 -2.485098364500 -0.163219228800
C    4.182292314800 -2.582461156400  0.964148601200
C    3.418645037000 -1.502984423800  1.367166547900
C   -3.220357680400  1.269350210200 -0.500965221600
C   -4.330467897700  1.417087533200  0.311392349000
H   -6.961576545300  0.359662760200  1.272904390800
H   -6.075194752900 -0.248818585200  2.668427292800
H   -6.095559495500  1.487660143200  2.311167214100
H   -4.647136578200 -1.769603239600  1.387067843100
H   -2.672949829800 -2.033992902500 -0.098672777900
H   -0.545929292500 -1.126274300400  0.778009291400
H    1.139261745400 -1.354942603600  0.280154909300
H    0.644801249000  0.032974368300  2.588430119900
H    0.201433389800  2.526052323300  1.705189852100
H   -1.147842832300  1.417859418200  1.335822239700
H   -0.249044110000  2.247969946700 -0.953913857500
H    2.284847360500  1.528140809700 -1.199090694100
H    1.988834881800  3.000548639000 -0.255670113800
H    4.327057617000  0.714240234400 -1.021002142400
H    5.665805870000 -1.210328823900 -1.741506663400
H    5.576907412100 -3.329395215800 -0.480606045400
H    4.156632521400 -3.501693010900  1.531784043900
H    2.804331133600 -1.576632629700  2.254402676800
H   -2.813109625100  2.099110684300 -1.056987497300
H   -4.797696748100  2.386039628900  0.405447709600
