43
-65.59148327
C   -4.807589707300 -2.810638850100 -1.088957630200
C   -3.956729127100 -1.696580799300 -0.564895734800
C   -4.228324649800 -0.376655673900 -0.914646375000
C   -3.431675352500  0.656296320300 -0.450978936100
C   -2.360070916800  0.365836590500  0.369800579800
S   -1.281369622400  1.659680759800  0.956350896600
O   -1.746821058100  2.932946757300  0.449181910000
O   -1.112764543600  1.543526974600  2.384390580100
N    0.151836756900  1.198691497000  0.231460782700
C    1.378767145000  1.245889886900  1.023403972300
C    2.418813980600  1.774125232200  0.036216439400
C    1.579967789700  2.776040600700 -0.756104480300
C    0.447156720700  1.800883590200 -1.065013450200
C    1.058973664100  0.722300374700 -1.958151748400
P    2.819019716400  0.514559614200 -1.318465673500
C    2.743540257400 -1.067425954500 -0.397523459400
C    3.545365622000 -1.211167742700  0.734900981700
C    3.590689721600 -2.412750688800  1.416557120500
C    2.852078652400 -3.495314093200  0.964911350200
C    2.086013138600 -3.373142991600 -0.181991108600
C    2.041091486500 -2.171490135100 -0.867870707300
C   -2.069153686600 -0.935781338600  0.731339339100
C   -2.868057778200 -1.962993317200  0.262493306500
H   -4.443832378900 -3.120588081400 -2.068851333800
H   -4.771670132000 -3.671810445400 -0.427229442200
H   -5.839738897800 -2.488943226700 -1.201934127000
H   -5.069866295000 -0.155702257600 -1.554317673200
H   -3.626005412400  1.686032735900 -0.708465211500
H    1.249911642900  1.925290247500  1.874263050900
H    1.601472079100  0.251098923000  1.415376724700
H    3.306347935800  2.181721700700  0.518905956300
H    2.071592680300  3.148869584400 -1.654102636600
H    1.238745020400  3.611648864100 -0.143497715700
H   -0.462870517100  2.243977992000 -1.470403484100
H    0.483682037700 -0.200808105900 -1.907486374100
H    1.094102732900  1.059044983700 -2.996657017300
H    4.129470615900 -0.369636029400  1.083104796900
H    4.205214630700 -2.506817352100  2.300579905100
H    2.884550328200 -4.433600171600  1.499164968700
H    1.524714254000 -4.220326662500 -0.549476709900
H    1.458684392200 -2.100250043500 -1.775130843200
H   -1.226318530100 -1.121102142500  1.378100226900
H   -2.646286204600 -2.982205123900  0.541907773700
