43
-65.59235022
C   -6.060124248400  0.523213896900  1.859831553200
C   -4.859514497300  0.351080616700  0.983653218700
C   -4.313816516400  1.451127229800  0.323452267700
C   -3.196480548800  1.311804884100 -0.479035710000
C   -2.620188338400  0.063297576800 -0.627850036600
S   -1.146187718400 -0.114531580100 -1.631390825500
O   -1.019768708000 -1.499001010800 -2.010052217500
O   -1.175162973500  0.873172332300 -2.681700844800
N    0.158164632500  0.242572667400 -0.671782329800
C    0.359894845600 -0.585073661400  0.511505814300
C    0.790945806000  0.417643671000  1.584444261100
C   -0.046067699600  1.638874794700  1.200630281300
C    0.359231199400  1.629116901000 -0.271414024500
C    1.864636842700  1.907752492800 -0.288225859700
P    2.527644235600  1.096209479000  1.276845361300
C    3.412910538100 -0.373847074400  0.639506892100
C    4.247037733400 -0.298413975400 -0.470734335700
C    4.979018074700 -1.402524026000 -0.871477776900
C    4.905509067800 -2.585985729400 -0.156202384000
C    4.109679229200 -2.656982548700  0.976233042900
C    3.377695941500 -1.555664172600  1.378707293000
C   -3.151481016300 -1.044047679600  0.004289050800
C   -4.268419165200 -0.895991166800  0.810563525500
H   -6.444298301400 -0.437545460100  2.190389312200
H   -5.799240365500  1.113990877800  2.737325626300
H   -6.846074363200  1.053969647000  1.326074457700
H   -4.771059725200  2.422427559000  0.439915383000
H   -2.772730879900  2.150898795800 -1.008136067500
H   -0.577750865400 -1.079056212300  0.792805920900
H    1.101186184300 -1.357559247100  0.297961494300
H    0.646635668700  0.051334917500  2.600055850900
H    0.260097528500  2.551469777900  1.711053175300
H   -1.114249832600  1.473630397200  1.343434851800
H   -0.196726097700  2.277645663200 -0.947927278100
H    2.319988234300  1.504724419900 -1.191955442900
H    2.057602962200  2.982180976100 -0.246613723700
H    4.331173893400  0.625893515900 -1.024703547500
H    5.613263367800 -1.336889692500 -1.744081950600
H    5.475107231000 -3.447290341400 -0.473305350300
H    4.062724937800 -3.572712387700  1.548111259300
H    2.766866423400 -1.608880238900  2.269822404700
H   -2.695987302800 -2.008145531000 -0.162597487100
H   -4.685150977000 -1.760761740200  1.305109542400
