43
-65.59154034
C   -4.657315898100 -2.894689100300 -1.383493285800
C   -3.851160218600 -1.758611542600 -0.836481616400
C   -4.137994632200 -0.443961045200 -1.189419581100
C   -3.400022003800  0.605746938600 -0.667455031900
C   -2.373971320000  0.336378321500  0.215239930700
S   -1.374050862300  1.656092644700  0.879592114300
O   -1.823194604000  2.913717877000  0.323433023500
O   -1.332898725100  1.549274372800  2.318514302100
N    0.126894053800  1.235132704300  0.277135206100
C    1.249764967600  1.140638471200  1.206409514400
C    2.415853749100  1.741911174500  0.422161987900
C    1.704087532100  2.851978010600 -0.349932708300
C    0.597754736800  1.955972185500 -0.900827128200
C    1.293436180000  0.954482389100 -1.822798067000
P    2.959663431000  0.627309283400 -1.006505997100
C    2.751091855700 -1.042134239600 -0.281059262300
C    2.094105259400 -2.069879018600 -0.948588599500
C    2.040043557400 -3.338940898500 -0.398057834900
C    2.661856710600 -3.604032142100  0.810328426000
C    3.355948413600 -2.596337412600  1.461724363900
C    3.409342760700 -1.327928243300  0.915240231800
C   -2.069366280600 -0.961151774500  0.582285098600
C   -2.807776385700 -2.004060103500  0.054952914800
H   -5.367700944600 -3.236372642700 -0.630659673400
H   -5.215029674500 -2.589619939700 -2.264491934100
H   -4.015290183000 -3.734264465700 -1.639376918800
H   -4.943648122200 -0.237566308900 -1.878257407100
H   -3.604819089800  1.632157760200 -0.929780060700
H    1.032423944200  1.717300411700  2.112954806300
H    1.402162325600  0.098228461600  1.495369029600
H    3.242318999100  2.064413324600  1.054419728800
H    2.312226601900  3.301783404700 -1.134112916800
H    1.307576001200  3.628383232600  0.305834885800
H   -0.243644711500  2.470367359200 -1.365326430700
H    0.698992090200  0.049424041300 -1.938436778800
H    1.460042100400  1.394121760100 -2.808741417800
H    1.625201340500 -1.885821565300 -1.904413359500
H    1.514907094100 -4.126317432600 -0.919554862700
H    2.617448108000 -4.594796375500  1.238403085700
H    3.859050809100 -2.801095372700  2.395980693700
H    3.959040547500 -0.544436233700  1.419688280800
H   -1.261732640200 -1.131519927900  1.276364105600
H   -2.574962395600 -3.020526525600  0.335474104500
