43
-65.59253448
C   -3.875801437700 -3.595631426200 -0.194204804400
C   -3.284201813100 -2.221003018400 -0.206097301500
C   -3.237167248100 -1.470473814300  0.966822878300
C   -2.700456929400 -0.195634534100  0.969648266400
C   -2.211090936000  0.333062188100 -0.209008478900
S   -1.420600464000  1.930048890400 -0.216762227800
O   -1.637308359000  2.579628837600 -1.486292655800
O   -1.796631561100  2.663971438400  0.972616114200
N    0.177753368000  1.445012470000 -0.159342269300
C    0.698026313700  1.169309850600  1.177026753100
C    2.140645931000  1.658073852000  1.095194118200
C    1.955551290700  2.925813536700  0.261555737100
C    1.181159534300  2.243674511400 -0.863823526800
C    2.187372730400  1.291975653800 -1.511644734400
P    3.183066528900  0.592453158800 -0.078201599800
C    2.460396829600 -1.077825065300  0.194476465100
C    1.275355652700 -1.557266891000 -0.355239548000
C    0.853849888400 -2.846803332200 -0.081768364700
C    1.606158881100 -3.673446630300  0.736747112400
C    2.789262939200 -3.206350708100  1.285663439100
C    3.214587181000 -1.919470324800  1.010663783800
C   -2.246543670000 -0.390265764700 -1.384975247000
C   -2.785914921000 -1.664923343100 -1.380763359800
H   -3.658846290000 -4.123888791400 -1.118403729800
H   -3.489334108600 -4.170560738600  0.644773079800
H   -4.957684827200 -3.531253597400 -0.080714510300
H   -3.623059576000 -1.890642007800  1.883669607200
H   -2.659723272100  0.403230678100  1.866043250400
H    0.129680093400  1.746392958500  1.917998407300
H    0.598791335300  0.106691217700  1.409606010400
H    2.608749568600  1.790854249900  2.070082145100
H    2.889343940000  3.369814816300 -0.080802401300
H    1.355266724500  3.674463615600  0.780858114700
H    0.677525975800  2.897125864300 -1.577121450900
H    1.712224364400  0.518995065800 -2.113173626000
H    2.866251941700  1.853349107200 -2.158956812700
H    0.661742842900 -0.923676955400 -0.977971724800
H   -0.071038211200 -3.203979458100 -0.510465802800
H    1.272196335700 -4.679524226500  0.944450977900
H    3.382127092200 -3.846256623900  1.923197008400
H    4.141927770700 -1.551650758400  1.429604866000
H   -1.861622576800  0.062611201300 -2.285280985900
H   -2.818217197200 -2.233409876900 -2.298497524100
