43
-65.59272464
C   -3.861204401300 -3.512884418000  0.573497251500
C   -3.284166645800 -2.165124478100  0.273417919000
C   -2.619130652700 -1.945794656500 -0.932356803200
C   -2.071703952200 -0.710653147700 -1.221608127300
C   -2.192116883000  0.314522069400 -0.301943982500
S   -1.384987802200  1.862254229100 -0.660058373300
O   -1.564470600800  2.209972893200 -2.048400440600
O   -1.775892948100  2.853056639100  0.320957613500
N    0.201852494300  1.387090983400 -0.460007598800
C    0.668601920400  1.352706181300  0.921336242600
C    2.123686782500  1.803899125400  0.810914395100
C    1.994663434800  2.894206836900 -0.253294793100
C    1.246619550100  2.024152777800 -1.259722751500
C    2.238924882100  0.938226278300 -1.675313333300
P    3.194603637200  0.537072709400 -0.102888304600
C    2.440098542400 -1.042238514200  0.441299906100
C    2.328269969400 -1.286509665600  1.810177611000
C    1.825513343200 -2.488503305400  2.271607520900
C    1.448842799500 -3.474156387800  1.373011118300
C    1.602812259100 -3.258599995300  0.014229101200
C    2.107027046400 -2.055932828200 -0.450007000700
C   -2.847231823900  0.124212256300  0.897239027500
C   -3.394495747100 -1.116756064900  1.180317921400
H   -4.397943839600 -3.508064698400  1.517741999900
H   -4.544187988700 -3.815725044300 -0.218255710500
H   -3.066234634100 -4.255349617500  0.626543159700
H   -2.530882628000 -2.752564976000 -1.644588764600
H   -1.558071728400 -0.516479645700 -2.149572773800
H    0.084809637600  2.060913124100  1.524098728200
H    0.537086890100  0.350116948200  1.333113197800
H    2.553298152400  2.122839038500  1.760000957400
H    2.949507808900  3.251961397500 -0.636733749300
H    1.392104433000  3.735993514400  0.090965099200
H    0.784996780300  2.537565832800 -2.103969778600
H    1.723798344900  0.070742956200 -2.083656954200
H    2.932173133200  1.321015455900 -2.427869031500
H    2.632751072500 -0.522221193000  2.512905353600
H    1.729929573600 -2.658678170100  3.334480085000
H    1.051757391200 -4.411958868600  1.732817081100
H    1.334190160800 -4.032994062400 -0.689887731100
H    2.244509997100 -1.913950024800 -1.512210471500
H   -2.922992790500  0.950421748800  1.587063422900
H   -3.909945319200 -1.269502979400  2.116854963900
