43
-65.59072840
C   -5.482689175300 -1.518489084300 -2.077121223800
C   -4.435355936100 -0.887131869900 -1.215281872200
C   -3.428619738600 -1.664123366200 -0.644818327400
C   -2.470900438500 -1.091001559700  0.171576306600
C   -2.518940020100  0.268434103600  0.417639098400
S   -1.255644587000  0.981961470500  1.454204985400
O   -1.504279247400  2.398313096600  1.621715682500
O   -1.116683917800  0.207235277000  2.661325374400
N    0.116743088200  0.695004365400  0.525721467900
C    1.373878522200  0.847079782900  1.266738329700
C    2.223584886400  1.733925292400  0.361493336800
C    1.157801791500  2.680888711200 -0.187295564000
C    0.208022552300  1.575581242400 -0.640536101400
C    0.948846305500  0.840523115900 -1.756563290000
P    2.751996013200  0.832652770300 -1.219648894000
C    3.039863205800 -0.873308137700 -0.596921483100
C    2.063534833900 -1.836316177100 -0.362922158300
C    2.423075655100 -3.094009997700  0.089585645000
C    3.754376612700 -3.407007745700  0.311767644000
C    4.733511686900 -2.455199378500  0.078613232800
C    4.377279296000 -1.199723612000 -0.378769873400
C   -3.507522852100  1.059988781300 -0.133362594900
C   -4.463692182700  0.478653281400 -0.948783067500
H   -5.918480250500 -0.791400767000 -2.756897526700
H   -5.067265859200 -2.342755676600 -2.651170277700
H   -6.280756822900 -1.915995576500 -1.449687040600
H   -3.398946877300 -2.725312888200 -0.842314076500
H   -1.688450798900 -1.673428764500  0.631358765600
H    1.177145711100  1.336863468600  2.228213039200
H    1.805574258100 -0.134994905000  1.469308781300
H    3.059795353700  2.202444676800  0.879387366700
H    1.503519040000  3.304797958800 -1.010672226200
H    0.709967156600  3.299677629700  0.591350869300
H   -0.794357761500  1.899649261500 -0.924981401300
H    0.553176155600 -0.157059984100 -1.938212090900
H    0.874133084700  1.408623380300 -2.687406194000
H    1.019680501400 -1.603820463000 -0.511080236800
H    1.657586168500 -3.834535981000  0.273642341100
H    4.027429057400 -4.390830425900  0.664755665500
H    5.773557112700 -2.693573616300  0.248547693900
H    5.137985176200 -0.454618780600 -0.571353013200
H   -3.513171522700  2.116255425900  0.088717838900
H   -5.239431105000  1.092662030200 -1.381445318200
