43
-65.59123154
C   -6.598024041600  0.775548331900 -0.259502979500
C   -5.158085484700  0.369165219500 -0.229046466000
C   -4.392698445400  0.347483985000 -1.389939658600
C   -3.058455726200 -0.023416803300 -1.349956367500
C   -2.490282949600 -0.375328784100 -0.142378430300
S   -0.761565652100 -0.804765881800 -0.052926436100
O   -0.571122771100 -1.927825939800  0.829846265300
O   -0.249947471000 -0.944295487200 -1.400149512000
N   -0.175359070800  0.528148364800  0.749552106000
C    0.917156136300  0.373132955100  1.706674468300
C    1.731793100400  1.653160575700  1.524608446700
C    0.624065643000  2.648313154500  1.169999470600
C    0.011399863800  1.796234006700  0.060457280200
C    1.092871477400  1.703955947100 -1.020777608400
P    2.724480354700  1.657818742500 -0.085430553400
C    3.224483592600 -0.098940161500 -0.229839083600
C    3.111649456300 -0.795277679300 -1.427889556500
C    3.571557317200 -2.096642624100 -1.524538416000
C    4.172924290400 -2.708037793600 -0.437509988800
C    4.331851935200 -2.005065109700  0.746138923200
C    3.871081152600 -0.705961637800  0.846420008900
C   -3.230256991400 -0.362328237500  1.025644571800
C   -4.560970815600  0.008024083600  0.978442228600
H   -7.218688810800  0.000817471100  0.186962316000
H   -6.741153790200  1.687502406800  0.318606240700
H   -6.933558205900  0.952188347100 -1.277360875100
H   -4.840863015400  0.621628430000 -2.333397430300
H   -2.448709141500 -0.052220355000 -2.239716512400
H    0.494445271800  0.314200606300  2.718232511500
H    1.467359848300 -0.549856128800  1.517336569400
H    2.331985257300  1.912323537400  2.396197743700
H    0.996822615200  3.603493178300  0.802080440200
H   -0.068256489100  2.807366578400  1.995599935900
H   -0.949998380800  2.135780218200 -0.332350015400
H    0.945445426400  0.821839896000 -1.641512916600
H    1.069879526500  2.592299308200 -1.657417508400
H    2.657664038800 -0.328442781500 -2.290138532400
H    3.459822667900 -2.634526070400 -2.455202092600
H    4.526071034700 -3.726064087400 -0.515068365200
H    4.816321837200 -2.471302893300  1.592245669000
H    4.003302361600 -0.155095047900  1.768304478300
H   -2.750809996700 -0.652456065200  1.946953893900
H   -5.147848479800  0.018768142700  1.884887119900
