43
-65.59148416
C   -4.799171941400 -2.601380844000 -1.654327356400
C   -3.964993382500 -1.564468628300 -0.969681167100
C   -2.895045004700 -1.945678479600 -0.161427578400
C   -2.108213836700 -0.996025706300  0.463137222300
C   -2.391217245200  0.344382548900  0.277790907300
S   -1.336064392700  1.542486089200  1.073735924200
O   -1.757507542700  2.873026010600  0.691342073400
O   -1.263286143800  1.257819075600  2.486509669600
N    0.138056179700  1.149502392100  0.388129145900
C    1.298174490100  1.026299975500  1.268121214000
C    2.421906810700  1.696467221000  0.477953415100
C    1.659635432900  2.833052365500 -0.201838820900
C    0.551589308600  1.945879817700 -0.763038273600
C    1.231232720300  1.013752058200 -1.765776960400
P    2.933733965200  0.677820868800 -1.031928720400
C    2.783635578700 -1.034952322900 -0.399105576800
C    2.125147956900 -2.035493545200 -1.105402342200
C    2.111105158300 -3.334873600200 -0.628042249200
C    2.774404159300 -3.656301847700  0.544082313700
C    3.470770851300 -2.674340815200  1.231283697400
C    3.484588120500 -1.375883892900  0.757754217200
C   -3.442705821600  0.747990530700 -0.519724982300
C   -4.228381025300 -0.209209369100 -1.140516999700
H   -4.276943898400 -2.970071005300 -2.537202120700
H   -4.977340675500 -3.447871404900 -0.995415616200
H   -5.753069507800 -2.188507214200 -1.970424736800
H   -2.680729400400 -2.994731513200 -0.021429020400
H   -1.280506171800 -1.271569623400  1.097118456800
H    1.105081287000  1.545049753600  2.214198926000
H    1.480024388000 -0.027537283400  1.490580791400
H    3.265063698900  2.000256982800  1.097254959200
H    2.228712696300  3.340769832100 -0.979968609000
H    1.271359729400  3.561218274100  0.511674858100
H   -0.315740752700  2.468502842300 -1.166918897600
H    0.651058614800  0.103634459700 -1.910068782000
H    1.350842571100  1.511724776800 -2.730548033300
H    1.623824243100 -1.805944032600 -2.034596423300
H    1.584311869600 -4.101375655000 -1.178148777400
H    2.760107474900 -4.670419666000  0.915781054800
H    4.006165101000 -2.922392387000  2.136656183900
H    4.035862919500 -0.612056340300  1.289821934700
H   -3.630875042900  1.803876248900 -0.638231990100
H   -5.054439365400  0.101889903700 -1.762574574700
