43
-65.59151960
C   -5.080439273300 -2.241647896400 -1.816335623400
C   -4.160327725200 -1.343257956700 -1.050905788300
C   -3.087879777200 -1.862007347300 -0.330293173000
C   -2.233831944600 -1.025114548800  0.366117144200
C   -2.454532711100  0.338399221200  0.340851427500
S   -1.317663708600  1.384455916700  1.231683482600
O   -1.680038900600  2.771116443400  1.027026264200
O   -1.210577970600  0.935315693300  2.598044417500
N    0.113863075100  0.992722622100  0.455215190000
C    1.329569718600  0.959328015400  1.268049493700
C    2.355607645100  1.711965480900  0.420775363300
C    1.472268969800  2.778185799100 -0.226243870500
C    0.411515929700  1.800683388000 -0.724225209700
C    1.109768119700  0.907771941100 -1.749284903000
P    2.872989703100  0.728609135200 -1.109268377100
C    2.905111859000 -0.989461645100 -0.475286497700
C    2.326891481900 -2.042193971300 -1.176755151500
C    2.452115542700 -3.341711756900 -0.716852643800
C    3.174661838600 -3.608867547500  0.433839530100
C    3.789771314200 -2.570774933300  1.115918913700
C    3.666141675900 -1.272021979100  0.658752239900
C   -3.509803629100  0.878670125700 -0.368078797300
C   -4.359990514500  0.035335871900 -1.061590548800
H   -4.930513033400 -3.281445173100 -1.540241716500
H   -6.117999420600 -1.971153139600 -1.632851194800
H   -4.895004136200 -2.137877662600 -2.885118568000
H   -2.921073756100 -2.928729567100 -0.312708961900
H   -1.400045487600 -1.407292064400  0.933420518000
H    1.150165172000  1.463031500800  2.224722788900
H    1.600070350600 -0.078057664100  1.476889201800
H    3.200557976200  2.088017835400  0.996437482800
H    1.959870501100  3.321549929900 -1.035113268100
H    1.060624045000  3.479623548600  0.500790203400
H   -0.511170146700  2.250594681500 -1.092071229600
H    0.600887828000 -0.050440183200 -1.843104945900
H    1.131545134400  1.393361318200 -2.727370586600
H    1.781505287700 -1.851429067700 -2.089979106600
H    1.988258223300 -4.150345148900 -1.263457053800
H    3.269374620800 -4.623449460800  0.792297070400
H    4.369986824800 -2.775042094700  2.004439600200
H    4.156001583100 -0.464400563300  1.186122955900
H   -3.648314889600  1.948929188600 -0.361054876800
H   -5.188610458100  0.449731213500 -1.616594659900
