43
-65.58652932
C   -3.686258155900 -3.351968605800  1.146303026300
C   -3.042088660400 -2.139112722900  0.552743872600
C   -3.425987755200 -0.861894463800  0.955392898900
C   -2.817214243500  0.259956953500  0.422331922100
C   -1.811759176700  0.101243678900 -0.513040167200
S   -1.036505969100  1.547855831500 -1.214889566500
O   -0.309534305900  1.187287761200 -2.412230710200
O   -2.041793537900  2.569503614900 -1.386072595800
N    0.025644928800  2.089767908900 -0.045935376500
C    0.209379784100  1.400736777900  1.224002278200
C    1.662632361500  1.716044428700  1.590106495900
C    1.851184745600  3.082408060600  0.926852402800
C    1.305617537800  2.658729619000 -0.434041439100
C    2.272707621300  1.586139497500 -0.951507736600
P    2.892882760100  0.696683320200  0.584087904900
C    2.078801625000 -0.938118558400  0.462889036900
C    2.119177826500 -1.657504190200 -0.727733440800
C    1.619726701500 -2.946700457600 -0.783168928800
C    1.088908339200 -3.537863800000  0.351218381200
C    1.073291611100 -2.840352595700  1.548111828000
C    1.577402919200 -1.554642658000  1.608450110900
C   -1.418313896700 -1.153407533700 -0.934584588900
C   -2.036940976800 -2.270120258500 -0.401517014200
H   -4.684185030000 -3.124094578300  1.510949892900
H   -3.746459545600 -4.154631434700  0.415863398700
H   -3.090923363900 -3.707520828500  1.987377150700
H   -4.211343306500 -0.745835537600  1.687280799100
H   -3.111401279500  1.258260231400  0.705671440100
H   -0.484411728600  1.821092415800  1.964172865900
H    0.012481083500  0.328701455100  1.139111485200
H    1.856332270500  1.687086616400  2.661804379600
H    2.891314256900  3.403148329600  0.878058354700
H    1.240082118100  3.856987647500  1.387926776100
H    1.133701775100  3.454760443200 -1.160699033500
H    1.769788933600  0.925345337500 -1.656817842300
H    3.118338729700  2.055203800500 -1.461158241800
H    2.547954915000 -1.209198129900 -1.613678300800
H    1.651646412500 -3.493231367900 -1.715090083200
H    0.703241222400 -4.545630016200  0.306757104100
H    0.676385810700 -3.303252870600  2.439912198400
H    1.585837364100 -1.020039311800  2.548575859600
H   -0.642422295300 -1.233852586200 -1.679168414400
H   -1.736528350200 -3.252691805800 -0.731054853200
