43
-65.59084286
C   -5.295553741800 -2.103581838900 -1.497303935400
C   -4.289427437400 -1.249080831900 -0.792909962600
C   -4.389405225700  0.138206504900 -0.810037049700
C   -3.460015784400  0.922890772200 -0.146805142600
C   -2.428282071700  0.312737867200  0.537547602800
S   -1.178659959200  1.278417491800  1.364565259700
O   -1.514103631200  2.684285617700  1.282458754300
O   -0.937873655100  0.746177203100  2.682081850400
N    0.158113799900  0.898102367100  0.423092178300
C    1.457081891000  1.060018262100  1.082367285400
C    2.298030279700  1.787495261600  0.038147314500
C    1.255242335100  2.735163223300 -0.552150375300
C    0.220146110900  1.648926852300 -0.831926478600
C    0.849541943200  0.763976081800 -1.906174278400
P    2.674797552000  0.684784604200 -1.457769627600
C    2.877805454800 -0.961837837900 -0.664310766400
C    4.199248282100 -1.355480950100 -0.459871456300
C    4.492392911300 -2.579737810000  0.112493303200
C    3.464471781000 -3.434502438500  0.475413311600
C    2.148168557600 -3.054888401100  0.268458856200
C    1.851919152500 -1.827181647000 -0.297978204400
C   -2.309506887000 -1.064504748500  0.573947856500
C   -3.239376327100 -1.840782027900 -0.091404645400
H   -4.799208079000 -2.874708780700 -2.082545367400
H   -5.933251593900 -2.600960737800 -0.766947767800
H   -5.924021040900 -1.508272269000 -2.153451320700
H   -5.199050328000  0.610957216200 -1.345717350900
H   -3.522035348200  2.000429389600 -0.145206453300
H    1.340419089100  1.663944057700  1.990353422200
H    1.848565388200  0.083384170800  1.374189263500
H    3.190533275600  2.255312683000  0.452316593800
H    1.584544758000  3.247193639200 -1.455459749300
H    0.890902516100  3.459613886800  0.177549999800
H   -0.779434074600  2.002798719100 -1.088215830200
H    0.382964625700 -0.217232032900 -1.971692626500
H    0.760069138800  1.246620294900 -2.882844003300
H    4.997984175500 -0.687653854700 -0.754801974000
H    5.521036017400 -2.870207411000  0.270320715900
H    3.687854210600 -4.394589504300  0.917463718100
H    1.345210152400 -3.720143112900  0.552772501800
H    0.819773696300 -1.540051220100 -0.431555288200
H   -1.494171647700 -1.498164692200  1.130843997300
H   -3.155323763900 -2.917153043000 -0.069149608000
