43
-65.59215192
C   -2.879045630800 -3.791353033400 -0.714603157900
C   -2.464818008200 -2.370096340700 -0.495891407300
C   -2.418423586900 -1.478479125100 -1.564761005500
C   -2.082987044500 -0.151625917700 -1.363420931300
C   -1.787988823000  0.285826306400 -0.086288611100
S   -1.404171980800  2.012636739600  0.187463510900
O   -1.924182046100  2.783839945200 -0.915204632100
O   -1.838849379100  2.351960291100  1.520322961300
N    0.225442815300  2.191586562700  0.158288863600
C    1.088728831400  1.667130549600  1.201579068200
C    2.473266141900  1.698306783300  0.545078716000
C    2.324473208700  2.856591420400 -0.446670978600
C    1.007532229900  2.367310589000 -1.045834701400
C    1.325795468300  1.018258145600 -1.706294833000
P    2.723636678100  0.285046879300 -0.677297240200
C    1.919665757300 -1.142011848400  0.135802364400
C    1.205634679100 -2.063034541400 -0.624877280300
C    0.727735324100 -3.225219659200 -0.048111010900
C    0.964235042500 -3.486230369900  1.291099582600
C    1.695892363700 -2.587202588900  2.050006476900
C    2.185722446600 -1.429918502600  1.473296444500
C   -1.821525482600 -0.580460085800  0.988402267500
C   -2.158320938100 -1.906480122700  0.779772324000
H   -2.516851412900 -4.158994408600 -1.671580344700
H   -2.510284209400 -4.431626571200  0.081810680100
H   -3.967445771700 -3.856127988300 -0.724142849000
H   -2.658064896400 -1.823971092300 -2.559608460300
H   -2.068972771100  0.561639515200 -2.173641716400
H    1.035010471100  2.324556053900  2.077680543600
H    0.777569034100  0.663775349900  1.507006257800
H    3.290810258200  1.798980711800  1.257736373700
H    3.129858217000  2.904007141600 -1.179187364000
H    2.211412784100  3.819420017000  0.049538192500
H    0.482187586500  3.055484812800 -1.708717923300
H    0.450841575100  0.368228088300 -1.731631988300
H    1.675241293900  1.170522082400 -2.730212014500
H    1.033652193300 -1.874411526000 -1.675469089800
H    0.179819951400 -3.934454827700 -0.649328550700
H    0.593233104400 -4.395490887700  1.740666087900
H    1.895830945900 -2.793621320100  3.091752005600
H    2.779510415500 -0.742612417200  2.060384072700
H   -1.612349289400 -0.197798882700  1.975136055700
H   -2.193077176800 -2.584857396600  1.618696768000
