43
-65.59150591
C   -4.945888674100 -2.363649753900 -1.798302162000
C   -4.068635039400 -1.411116128600 -1.048154157400
C   -2.986156490700 -1.890448281500 -0.311281486500
C   -2.160898192200 -1.021967322800  0.377811300300
C   -2.418012604300  0.335808383300  0.329709029900
S   -1.313202099800  1.426151027400  1.207773944500
O   -1.707848003500  2.798756597500  0.970792147600
O   -1.205089950700  1.006532124000  2.583550634100
N    0.130782676200  1.055287979000  0.448789390900
C    1.338445053200  1.000641951900  1.271146095700
C    2.386361909100  1.716881626300  0.419850351900
C    1.534854977900  2.807671543800 -0.228713106300
C    0.446568892900  1.861031369600 -0.727221049000
C    1.119915634000  0.953969733700 -1.756331026200
P    2.871772309700  0.710446149100 -1.106730159000
C    2.838260414800 -1.003964471300 -0.462245568800
C    2.207988009500 -2.039202062000 -1.144246612800
C    2.284601894700 -3.337641632000 -0.670536729600
C    3.010576608200 -3.622389802300  0.473629141500
C    3.677701331700 -2.603565671000  1.135656360000
C    3.601677355200 -1.305973574800  0.665338350600
C   -3.480889263100  0.835979579200 -0.394363418700
C   -4.304892489700 -0.040884120500 -1.081308039300
H   -5.855647930000 -1.874991580700 -2.135193204500
H   -4.416512528300 -2.746101103000 -2.670638184300
H   -5.209541204800 -3.213196205000 -1.172080432200
H   -2.793322527700 -2.952464911700 -0.279066427500
H   -1.321940318700 -1.372571115300  0.957612371700
H    1.167211519600  1.521109255200  2.220570672000
H    1.581759139400 -0.040319680700  1.494941957900
H    3.243490322900  2.068333386700  0.993058240200
H    2.038159533500  3.335969486100 -1.037862891100
H    1.144986614000  3.521728396300  0.498039787300
H   -0.464686025600  2.336679617500 -1.091077917100
H    0.579316687100  0.014715149700 -1.862406419400
H    1.164975624000  1.447004962900 -2.729935358700
H    1.658870439600 -1.836793824500 -2.052542953300
H    1.779829263500 -4.131968179300 -1.201603570100
H    3.067512191600 -4.636020455900  0.842630039100
H    4.260908833700 -2.822113020900  2.018820812300
H    4.131238986600 -0.513556293200  1.177292041300
H   -3.647888338500  1.902063710000 -0.405699751200
H   -5.139527390600  0.345912030300 -1.646861675600
