43
-65.59266046
C   -4.170467316200 -3.465440213800  0.384929883600
C   -3.514128705500 -2.139733444400  0.158923247900
C   -3.791522433500 -1.066285110600  1.001718441700
C   -3.174128117500  0.158056755900  0.814435749700
C   -2.277923298500  0.309225620000 -0.225391476700
S   -1.429666501200  1.856250679000 -0.478592493300
O   -1.619652471100  2.314487036300 -1.832794785100
O   -1.789291598200  2.782437275000  0.575620743000
N    0.155957046000  1.339726528900 -0.345353005200
C    0.575864187300  1.068096736600  1.026922954200
C    1.981716570100  1.663631933300  1.098159050600
C    1.796574730300  2.917127905800  0.242557184500
C    1.184664376000  2.186665833500 -0.949402944600
C    2.287691741200  1.274384296000 -1.485350020200
P    3.221050462600  0.696854141300  0.044942864500
C    2.630606806800 -1.024743655500  0.257289197500
C    2.479213388700 -1.523853571200  1.550878449900
C    2.107870461600 -2.839192254300  1.757829702400
C    1.904372598900 -3.681780138200  0.676422529900
C    2.098136263100 -3.206808107400 -0.609563309800
C    2.471809030500 -1.890604675200 -0.819174513500
C   -1.987398110100 -0.739211647200 -1.076917996400
C   -2.605208611600 -1.961315411600 -0.880921541500
H   -3.661206112500 -3.994819548900  1.190254683800
H   -5.209745537000 -3.335521465700  0.677206010200
H   -4.125307700500 -4.080641211000 -0.509307368700
H   -4.496239982400 -1.190866069300  1.810421044600
H   -3.373779585600  1.002074821700  1.456488927900
H   -0.097641685100  1.583288220900  1.723777253700
H    0.531854968100 -0.005167595200  1.222278591900
H    2.327895772700  1.837923049600  2.116361709200
H    2.728715657000  3.422819251400 -0.006974769800
H    1.096188608600  3.622979713500  0.691662092800
H    0.723556384300  2.807305323400 -1.718736391400
H    1.869068394900  0.447891867100 -2.056890167500
H    2.968036508700  1.836452662300 -2.129222381500
H    2.649327484900 -0.870401183600  2.396169777900
H    1.980480851100 -3.209527208200  2.765001283500
H    1.610467510100 -4.708595522900  0.837297684100
H    1.964362616900 -3.866124848000 -1.455256298900
H    2.645232351700 -1.541930214600 -1.827175478200
H   -1.287295974900 -0.578115428700 -1.880539420900
H   -2.381045322000 -2.785075558100 -1.541907681300
