43
-65.59234074
C   -4.183147277400 -3.479925845300 -0.107239572600
C   -3.513384139900 -2.142019519500 -0.136631650200
C   -3.461496507900 -1.338839878100  0.997623188200
C   -2.842286810500 -0.100346580900  0.959721054200
C   -2.273350229800  0.334178289500 -0.220137318300
S   -1.419867707500  1.897035609400 -0.286545779400
O   -1.618123499700  2.506382449500 -1.578620200400
O   -1.770674930400  2.688825670100  0.873558257500
N    0.169013443000  1.368522463900 -0.216152243800
C    0.648877743500  1.077272056000  1.133933148700
C    2.069193473400  1.635273683900  1.134577599900
C    1.866923463100  2.907756093800  0.312479202000
C    1.179486749500  2.210999899900 -0.859207386500
C    2.252144267200  1.307731079200 -1.467919458100
P    3.222567684900  0.646759494500  0.000566999900
C    2.591183441100 -1.067023503900  0.221678282600
C    1.456823644100 -1.605602378900 -0.378114911900
C    1.108139153300 -2.924556873200 -0.144905132500
C    1.882160754600 -3.720677176200  0.683730640900
C    3.013712516300 -3.193444640700  1.284172744500
C    3.367533192300 -1.877491544600  1.048452065200
C   -2.308735492500 -0.446540606800 -1.360748372900
C   -2.930560119400 -1.680071117900 -1.316201507900
H   -3.468517497000 -4.264608328900 -0.350624233200
H   -4.606494093000 -3.684376431100  0.871888836100
H   -4.979441363500 -3.517607984700 -0.848859483500
H   -3.910490413600 -1.680885215900  1.918157106600
H   -2.801708362100  0.541230073700  1.826128457700
H    0.024531985000  1.606774511200  1.864582054900
H    0.590353426800  0.004980634000  1.332642585900
H    2.478926027500  1.772262033400  2.134872296200
H    2.794858917900  3.399737924500  0.023850900100
H    1.206683142300  3.618753243800  0.811792024900
H    0.688427432400  2.854922973200 -1.589694501800
H    1.835416398800  0.518678647500 -2.091501874200
H    2.929909509700  1.902874330200 -2.085625251200
H    0.828807724800 -0.996252695600 -1.010883739800
H    0.225051206000 -3.332467891000 -0.614622993100
H    1.605009312100 -4.749934770300  0.859010349900
H    3.622933889900 -3.809253649500  1.929919191500
H    4.255900252800 -1.462456473400  1.505924430900
H   -1.861095116100 -0.065088249900 -2.264953937300
H   -2.967572738700 -2.294699097100 -2.203494455500
