43
-65.59273190
C   -3.891950991600 -3.511281935100  0.456665092200
C   -3.315652973200 -2.160440491300  0.169694980200
C   -2.539141674600 -1.958789103000 -0.970355135800
C   -1.980004638300 -0.722734721000 -1.233681763500
C   -2.199637192200  0.320012850900 -0.353191062200
S   -1.375616362000  1.868448732100 -0.666816132200
O   -1.497727702800  2.234293338500 -2.056459183200
O   -1.800789492100  2.851882185700  0.307815734200
N    0.201847944700  1.382071517800 -0.413926046700
C    0.576150756300  1.249958844700  0.990161927000
C    2.018693575700  1.751245426100  1.018905426700
C    1.923332846800  2.919709519600  0.037218553400
C    1.277397620600  2.111422788000 -1.084714324900
C    2.332837613100  1.091929980000 -1.512449069900
P    3.194570232200  0.595846106100  0.087086973300
C    2.463990055400 -1.046156044200  0.446432365900
C    2.249587381700 -1.995137976500 -0.547008954400
C    1.758861578800 -3.248418276400 -0.223942919200
C    1.500378582400 -3.578802649100  1.095424617100
C    1.759941603500 -2.657402491800  2.097599494100
C    2.249599676100 -1.405058591800  1.777156002900
C   -2.967679877500  0.147827904100  0.780261089900
C   -3.526616393400 -1.093331421300  1.036776431800
H   -3.108373660100 -4.173838972900  0.824048690200
H   -4.672011395200 -3.451753575200  1.210456685200
H   -4.303364276600 -3.952923603900 -0.448146202000
H   -2.371852863400 -2.779387983200 -1.651888858500
H   -1.380304473500 -0.542745293500 -2.111382668200
H   -0.069989171400  1.890912793600  1.604431130200
H    0.451375263500  0.214095763000  1.311436518500
H    2.370680507500  2.005516301100  2.018160864500
H    2.888460298000  3.336582700300 -0.248238280900
H    1.267948716100  3.711668172800  0.402692337300
H    0.857442150700  2.677186646800 -1.917313207600
H    1.876553427700  0.244681410400 -2.021073586700
H    3.060707939500  1.553676249100 -2.183601063300
H    2.469990947700 -1.761713814900 -1.578740372900
H    1.582800402200 -3.971983700200 -1.006963218900
H    1.113541749300 -4.555948488200  1.344767333000
H    1.583330918200 -2.916886695200  3.131656990900
H    2.464006784000 -0.691390374600  2.561560830900
H   -3.118128498000  0.987832909000  1.440640848000
H   -4.129756196500 -1.232730045500  1.921597470300
