43
-65.59273234
C   -3.956250315800 -3.554546182200  0.324738970200
C   -3.353819301900 -2.196960214000  0.142236809700
C   -3.596651589400 -1.175259005400  1.054090555900
C   -3.037405056500  0.079731324300  0.875996012400
C   -2.237413951400  0.311154825400 -0.224135593700
S   -1.428457806300  1.882846556000 -0.450064547300
O   -1.617378553200  2.357317873100 -1.798889286800
O   -1.812068829500  2.783992251600  0.617151842600
N    0.162380648500  1.391116615300 -0.312326584000
C    0.593193036800  1.131131043900  1.057801085100
C    2.019102373600  1.678643515800  1.091450572100
C    1.854173352900  2.931552454900  0.230687902100
C    1.195273957100  2.212429212100 -0.943106491600
C    2.263486908900  1.270706253700 -1.498364497500
P    3.200200604200  0.660978498300  0.017511709700
C    2.542926168200 -1.034519585000  0.244958844000
C    2.391235885000 -1.523153928100  1.542568521900
C    1.961706141700 -2.818855722500  1.760250995700
C    1.699957479200 -3.653498646900  0.685244690200
C    1.895743144400 -3.191957941100 -0.605265116300
C    2.327342419600 -1.895356873800 -0.825537981500
C   -1.985778085100 -0.685798313400 -1.148428656100
C   -2.543659676200 -1.936109062800 -0.962261056400
H   -4.408993016200 -3.653270778000  1.307157186600
H   -4.725330226900 -3.722538641400 -0.428633393500
H   -3.199001224300 -4.326111383300  0.202577789200
H   -4.224752210400 -1.360598604600  1.912725890000
H   -3.209538931000  0.884485683200  1.573968116900
H   -0.050447121900  1.682881430300  1.755406253700
H    0.514427276000  0.064176067100  1.275243034400
H    2.395441760700  1.848404412700  2.099688762800
H    2.795706794500  3.406441459600 -0.042782892500
H    1.186824448200  3.662032863700  0.690480924600
H    0.732177618000  2.840915838300 -1.704846559100
H    1.813251440900  0.458355344200 -2.066007207100
H    2.951087845200  1.814807781500 -2.149946163700
H    2.607017449000 -0.876554274900  2.382748186800
H    1.833735463500 -3.180025488800  2.770661076400
H    1.360070979600 -4.664618448000  0.854684613900
H    1.718080557200 -3.846688937900 -1.446403812900
H    2.500263627900 -1.558457594500 -1.837574000600
H   -1.360458088200 -0.460611249200 -1.997196663500
H   -2.350235400900 -2.722045011300 -1.676922119800
