43
-65.59235451
C   -4.098569179100 -3.471198360400  0.227257210000
C   -3.446336449800 -2.138073511100  0.034692360500
C   -2.857771887500 -1.815871947200 -1.187183930000
C   -2.244698207200 -0.590968372700 -1.374581322700
C   -2.223517346900  0.320597740000 -0.335608935800
S   -1.374507208100  1.868572731000 -0.578259620700
O   -1.532622432700  2.303943627600 -1.944215382400
O   -1.762897551600  2.800512169700  0.459052911500
N    0.208440626200  1.360493907600 -0.387787130500
C    0.665335848000  1.281728135700  0.997939978300
C    2.107398552300  1.773681692200  0.920545691100
C    1.959187620600  2.904024312200 -0.097529993700
C    1.248072467400  2.055333127500 -1.148827395500
C    2.289310861000  1.029393295500 -1.596744982700
P    3.218328725400  0.565379260300 -0.029353162700
C    2.499691114500 -1.058390740000  0.452783221400
C    1.349106619100 -1.634031423200 -0.077469719700
C    0.929420989100 -2.877889344500  0.360618307000
C    1.648029789900 -3.562374358500  1.327293268200
C    2.795758279200 -2.998098091700  1.859608585300
C    3.220516647400 -1.757753198200  1.419465166900
C   -2.795033380800  0.023978521500  0.885227652200
C   -3.405802535800 -1.205613759700  1.066401804400
H   -4.709530381000 -3.726199774000 -0.635865160400
H   -3.339023137100 -4.244963080700  0.336321630700
H   -4.721259981700 -3.476025598500  1.117403049200
H   -2.883770778800 -2.531330333500 -1.995845676700
H   -1.794584645300 -0.316226962200 -2.315637833400
H    0.058024605300  1.950281870100  1.621471148800
H    0.561035740800  0.261203242300  1.372789080100
H    2.521481653900  2.053391222700  1.888792214400
H    2.907139248400  3.305864141200 -0.452890003100
H    1.327706174100  3.712052646500  0.275209899700
H    0.781875842800  2.591704135000 -1.976082355200
H    1.847569320200  0.169677270200 -2.097543151100
H    2.995885349900  1.495866548400 -2.288290014400
H    0.761343227900 -1.108770845500 -0.815352051700
H    0.033902999500 -3.313070175500 -0.058055595000
H    1.315565275700 -4.533789552200  1.663049815000
H    3.362088828800 -3.526998099900  2.612539821500
H    4.121436650500 -1.315950273500  1.824307551600
H   -2.764509518100  0.764376705400  1.669278544300
H   -3.858219364500 -1.439956262700  2.018454403100
