43
-65.59291420
C   -3.541936490100 -3.692766337100 -0.418101761600
C   -3.052771576200 -2.281844435600 -0.319988242000
C   -2.817264863600 -1.710539523200  0.928885027600
C   -2.364148233900 -0.408515243000  1.036374020700
C   -2.147443588900  0.328399342300 -0.112244728000
S   -1.426965612500  1.953857380700  0.009132435400
O   -1.718342307700  2.716894393100 -1.180072180400
O   -1.778382743100  2.547835830700  1.281205056300
N    0.182070465000  1.529791522600 -0.029825067300
C    0.806773099500  1.214702468800  1.247838408700
C    2.258317905900  1.635494096600  1.031247193300
C    2.055694852600  2.922918465400  0.231732334400
C    1.141390775800  2.297794100100 -0.818847910900
C    2.020186793100  1.301879009500 -1.575649771700
P    3.126687298600  0.545047386100 -0.253112002300
C    2.339935348200 -1.080499492400  0.063883890500
C    1.800306191300 -1.867920022900 -0.946533215500
C    1.280934967400 -3.118228531900 -0.657893633300
C    1.314898087200 -3.608005936900  0.636288921400
C    1.894079599800 -2.850456382700  1.642087266700
C    2.412772705500 -1.601778827900  1.356057427500
C   -2.375796575500 -0.213881276700 -1.360950269000
C   -2.833027907000 -1.516722061200 -1.461065021100
H   -2.920793521400 -4.351895292600  0.184924718100
H   -4.561316914400 -3.760251153600 -0.039429971900
H   -3.532471744500 -4.039596100200 -1.447391238400
H   -2.987882746100 -2.293612871900  1.821684821800
H   -2.183421545200  0.053286154100  1.994440433100
H    0.337833596900  1.806152310400  2.045765176500
H    0.674768698900  0.155018321000  1.475649482300
H    2.824195229900  1.740651703700  1.956316868700
H    2.972696545800  3.324275841600 -0.197883925600
H    1.549726628300  3.693671881500  0.814698754500
H    0.600267597300  2.985099335800 -1.469990018200
H    1.417749875000  0.557872717600 -2.093288293200
H    2.642999573000  1.819816084300 -2.308714921800
H    1.786565099900 -1.513124983800 -1.966762960200
H    0.850235507600 -3.713546971400 -1.450048536800
H    0.906032652500 -4.582508829300  0.859163357900
H    1.944293082700 -3.235337669200  2.650649033800
H    2.874627550700 -1.015466475100  2.139500407000
H   -2.198245494300  0.397053028800 -2.232075552800
H   -3.016098643500 -1.943911307500 -2.435832103500
