43
-65.59320440
C   -6.139484141400 -1.167092357300  1.159437837600
C   -4.810510370400 -0.797633772900  0.578878824800
C   -4.569766121800  0.485993443400  0.097243986200
C   -3.333597403700  0.824169542800 -0.425313936400
C   -2.334244784400 -0.128339685100 -0.468348356200
S   -0.733009225300  0.342116007000 -1.095093970200
O    0.086633628200 -0.842407907500 -1.228712132300
O   -0.886646401400  1.169760751800 -2.266341734600
N   -0.217554730000  1.333875422400  0.144596282300
C    0.322828949700  0.667302224000  1.325672112600
C    1.526947681700  1.528824135100  1.714624675400
C    1.072186460800  2.907007818000  1.226132802800
C    0.673298348300  2.443337018400 -0.171191656200
C    1.961570057000  1.940290466500 -0.832668106600
P    3.008846594600  1.257007953000  0.576298637100
C    2.966161828100 -0.546897550300  0.271533707200
C    2.833851031600 -1.429217488600  1.341906794200
C    2.890613441700 -2.794648857300  1.133304253500
C    3.105873419200 -3.294262320200 -0.140714729300
C    3.282675460400 -2.421950735800 -1.201580012600
C    3.224773634700 -1.055849218300 -0.996463807600
C   -2.548097194300 -1.409412207700  0.002812899400
C   -3.786105093600 -1.740348874300  0.523886440800
H   -6.493842080600 -2.103803555700  0.734261607400
H   -6.047769454900 -1.306069605700  2.236253444500
H   -6.877062087900 -0.391823872400  0.973022335200
H   -5.355322290600  1.226116624300  0.130953164500
H   -3.128684095200  1.810465709600 -0.810190411700
H   -0.440021610700  0.671110718800  2.114262165500
H    0.578591970600 -0.367902043200  1.087394307500
H    1.782539998100  1.468733020500  2.772094894200
H    1.871537612500  3.647061493400  1.205192246900
H    0.220859988000  3.287807540500  1.788579438300
H    0.137112959800  3.160900971600 -0.794094041900
H    1.733732055600  1.184156201200 -1.585047655300
H    2.494044208200  2.763988324700 -1.315503464600
H    2.677168700300 -1.040415331600  2.339339589700
H    2.767279943000 -3.471513090700  1.966965801500
H    3.144158437800 -4.361405284800 -0.305298197900
H    3.465985746500 -2.807147875100 -2.194607161300
H    3.376243300900 -0.382496674600 -1.829112151000
H   -1.742586780000 -2.125214741200 -0.054646892400
H   -3.962061078400 -2.740241521100  0.891951649200
