43
-65.59261087
C   -4.056354453100 -3.503070899200  0.392341820400
C   -3.423276444300 -2.170897384800  0.139374992900
C   -3.777802618900 -1.071776569600  0.918830771500
C   -3.189615675800  0.162780134600  0.709692510600
C   -2.246528125200  0.299617504700 -0.290445919200
S   -1.413987799400  1.854784395400 -0.547398667400
O   -1.542787359000  2.280880834300 -1.919018399900
O   -1.833952429800  2.800766145800  0.466342447100
N    0.168243339200  1.360647170700 -0.327692200000
C    0.497295577400  1.051545354600  1.061021676100
C    1.897380841100  1.637551271600  1.234392593700
C    1.758896166700  2.924133627300  0.419550350200
C    1.221285804000  2.241251838000 -0.834898123500
C    2.361980393400  1.360447630100 -1.343148565700
P    3.195512841700  0.709780861900  0.215857305700
C    2.585480560400 -1.016005840400  0.297219835000
C    2.534574786000 -1.824905799600 -0.833167470400
C    2.135140112200 -3.146096820400 -0.731722408700
C    1.806732352600 -3.683404188700  0.501418379200
C    1.905807193400 -2.899966874200  1.640207084500
C    2.304828161200 -1.579921563900  1.541383486600
C   -1.883368323400 -0.772473740100 -1.081987572800
C   -2.471613254700 -2.005777179800 -0.862915224800
H   -3.759980581400 -4.226698092300 -0.361358615900
H   -3.757790863700 -3.877040131500  1.370914622100
H   -5.141025118600 -3.413850265000  0.390004138700
H   -4.517604420800 -1.186822475600  1.697085392200
H   -3.444656800400  1.025330798500  1.305924514700
H   -0.215774438700  1.553594108800  1.728081736200
H    0.434445508700 -0.025803345500  1.224761679600
H    2.186418799400  1.771341301800  2.276329806600
H    2.702162934600  3.440479112500  0.245116269200
H    1.031273938700  3.610743059700  0.854827757700
H    0.799542691800  2.890958417500 -1.603043454000
H    1.986280987100  0.561726240800 -1.980324934100
H    3.079287301100  1.955784539900 -1.912735794400
H    2.812281280300 -1.426127015100 -1.798519473800
H    2.086483478200 -3.760125038800 -1.619677138000
H    1.490335320500 -4.713252297000  0.577879734300
H    1.674784511500 -3.320171705200  2.608602937000
H    2.396212273200 -0.974620398900  2.433395259900
H   -1.148557040100 -0.622750172900 -1.856184009600
H   -2.187331687100 -2.848219555300 -1.475423464700
