43
-65.59253326
C   -3.883399893500 -3.592030208600 -0.233179391500
C   -3.289012173100 -2.218586021300 -0.226253138500
C   -3.225851050700 -1.489701495600  0.959424315900
C   -2.687863924800 -0.215450296700  0.978494317600
C   -2.213696498900  0.334394650900 -0.196652773900
S   -1.422411267600  1.930997374800 -0.186235683600
O   -1.649462363500  2.598733492700 -1.444583945000
O   -1.789151639300  2.646865315500  1.016900660800
N    0.176497836400  1.445591604100 -0.147259861600
C    0.713975780600  1.169519275800  1.182201087100
C    2.155766789600  1.657433362000  1.082030059600
C    1.961276293100  2.924336266800  0.249286699500
C    1.171942852000  2.241804398900 -0.865434256800
C    2.168876950400  1.288138154500 -1.524660307800
P    3.182600624800  0.589980906700 -0.103264957900
C    2.462704409300 -1.079477432400  0.181523677500
C    1.272754308400 -1.561068106800 -0.355563120700
C    0.854729648600 -2.850167376600 -0.074693000300
C    1.615050615000 -3.674010941400  0.739223494900
C    2.802818942600 -3.204598182800  1.275949614800
C    3.224921277000 -1.918366669700  0.993086853300
C   -2.265179008200 -0.367402546000 -1.385056092300
C   -2.805656135900 -1.641469265200 -1.397072292100
H   -4.966645554500 -3.525513039200 -0.134164536100
H   -3.655893636300 -4.112817706000 -1.159113038100
H   -3.509912243200 -4.175036569400  0.605911085100
H   -3.599755871600 -1.926334048900  1.873551808300
H   -2.634604274100  0.366752210200  1.885147817700
H    0.155247214900  1.746403809700  1.930560092900
H    0.617418568000  0.106885089200  1.415808201700
H    2.636048695600  1.790944241500  2.050886960000
H    2.891122055700  3.366977435300 -0.105350321100
H    1.368406909100  3.674227220000  0.775267749400
H    0.660184083000  2.895021863400 -1.573112017800
H    1.685432191400  0.514721241100 -2.118960556000
H    2.839849075400  1.847991075500 -2.181463861700
H    0.652689145900 -0.929571253400 -0.974034890400
H   -0.073815761700 -3.209210370800 -0.493822138100
H    1.283641819200 -4.679688862800  0.952858407300
H    3.401855564900 -3.842261568200  1.909954243000
H    4.155950629400 -1.548891332700  1.402281737300
H   -1.891549713700  0.101617358200 -2.281845878000
H   -2.850354864100 -2.193253004900 -2.324420284000
