43
-65.59183895
C   -6.107059792900  0.361697814700  1.679932319600
C   -4.871601485300  0.263023916900  0.841685803700
C   -4.325768963400  1.387843142400  0.230452374200
C   -3.172435360000  1.290652652300 -0.529761771000
C   -2.564583919800  0.059830122000 -0.683838839100
S   -1.038880643500 -0.063173006400 -1.612357876300
O   -0.853587882300 -1.435607283500 -2.009962025000
O   -1.029166978600  0.944051556600 -2.644554351500
N    0.195781953500  0.305536404100 -0.568617145100
C    0.326259576700 -0.524239946300  0.624077625400
C    0.791724896900  0.469454789300  1.685091235500
C   -0.042815895800  1.694647178900  1.310138405200
C    0.366323889000  1.696923794000 -0.161142501500
C    1.862258042400  2.017878099700 -0.151196273200
P    2.545574515800  1.106148903800  1.344314789200
C    3.353853921000 -0.386377386500  0.636212256200
C    3.221362528000 -0.847790761200 -0.669881018700
C    3.904516241700 -1.980489109400 -1.077828527400
C    4.726576931500 -2.662458829100 -0.195273495700
C    4.867262100200 -2.207790274800  1.105752915800
C    4.189570611400 -1.074012978300  1.514873082500
C   -3.095784805600 -1.074735037200 -0.098149480400
C   -4.245610308000 -0.969093724100  0.663749687800
H   -6.553399816200  1.349103842900  1.604875335300
H   -6.837686302200 -0.381998492800  1.368031662800
H   -5.864139517000  0.168575452900  2.724365750300
H   -4.805520543300  2.347961725400  0.348492928500
H   -2.746690005000  2.151872404000 -1.020369862700
H   -0.644518266500 -0.956877733500  0.898116644200
H    1.023119097800 -1.343295930300  0.437598015300
H    0.669767175700  0.101113088600  2.703041266200
H    0.260258030900  2.603757263700  1.827549736000
H   -1.110889372000  1.525240377900  1.451168399400
H   -0.198698855000  2.338378712900 -0.837229740300
H    2.354725521100  1.738205355800 -1.080983355300
H    2.013763795700  3.089847247400  0.001136783600
H    2.568492814300 -0.346954625600 -1.369654012400
H    3.787699090000 -2.334034606300 -2.092615551800
H    5.256203047200 -3.545421195100 -0.522406092000
H    5.508075137800 -2.734470397000  1.798074313000
H    4.301480533900 -0.708869409500  2.527248144100
H   -2.609909627400 -2.023521843400 -0.267225380900
H   -4.665032700600 -1.851440186300  1.123892000400
