43
-65.59149646
C   -4.687792809200 -2.751968099000 -1.565811899800
C   -3.887482669300 -1.668235376000 -0.914035993800
C   -4.143859930600 -0.328841283300 -1.189949088700
C   -3.388360618000  0.671842582300 -0.601491342800
C   -2.374497753200  0.328265500300  0.269642743500
S   -1.347610927500  1.581921142200  1.014851738700
O   -1.796946762000  2.885698458700  0.576065281200
O   -1.265085410000  1.359460248300  2.438027844600
N    0.131597141600  1.190329531800  0.343317114500
C    1.299763151300  1.127678464700  1.218312571000
C    2.411001122500  1.750925292000  0.374320650600
C    1.636919661900  2.846496363200 -0.357526959700
C    0.523804037200  1.927475399300 -0.853686595500
C    1.192547021000  0.945932305400 -1.815582327100
P    2.902119231000  0.646990580000 -1.082116356100
C    2.755752355300 -1.026307846400 -0.350498410500
C    2.082074963400 -2.063469559200 -0.985990249700
C    2.072407934100 -3.332908855500 -0.433760769200
C    2.755146813500 -3.588604109500  0.743346060300
C    3.466345425800 -2.571216909100  1.360283526700
C    3.475657515300 -1.302488596600  0.812012274200
C   -2.099261063800 -0.994963677400  0.559835222200
C   -2.856116160600 -1.988629668200 -0.032731260800
H   -4.141358987100 -3.148438864900 -2.421700691900
H   -4.862637032300 -3.571582133900 -0.873142669100
H   -5.642834456200 -2.372802563800 -1.918784054400
H   -4.940444263100 -0.064925288900 -1.869611120400
H   -3.572338729400  1.716344237900 -0.800303168600
H    1.114806843500  1.705552443400  2.131406068100
H    1.488412491800  0.091040125300  1.505981429700
H    3.263044540200  2.089927160200  0.962426659600
H    2.194092378400  3.310806680700 -1.170571094400
H    1.257263050000  3.612853323600  0.319623298600
H   -0.351794387200  2.425203197700 -1.271064864600
H    0.610926974000  0.030043894500 -1.908024340900
H    1.302690860100  1.394517210500 -2.805402960100
H    1.565170952500 -1.886608920600 -1.918124370300
H    1.533774029000 -4.127879450400 -0.929335886200
H    2.744574183200 -4.579490660800  1.173310910300
H    4.016919744300 -2.768508699000  2.269035455300
H    4.038547685900 -0.511273296700  1.289152917700
H   -1.301522598700 -1.222337884900  1.249001414900
H   -2.647747553900 -3.024591082200  0.189602414800
