43
-65.59117351
C   -6.576636851700  0.825827988200 -0.384261202300
C   -5.141024723400  0.413449702300 -0.293861547200
C   -4.361904407400  0.278541561700 -1.438348464400
C   -3.037316785100 -0.116393505800 -1.349039844800
C   -2.492155162500 -0.378615937800 -0.108237714200
S   -0.775763326700 -0.838548050900  0.042238595500
O   -0.628105882900 -1.921692621800  0.981206109400
O   -0.234322854500 -1.055259210700 -1.283202263000
N   -0.179198512900  0.517168220800  0.798198424600
C    0.948904043300  0.386536186800  1.717425288300
C    1.743967301700  1.672105204500  1.489657272000
C    0.617920539900  2.649458531300  1.143031445700
C   -0.016949872100  1.766698718800  0.070527393100
C    1.036579231100  1.651174830800 -1.036230478800
P    2.693773809700  1.658402115700 -0.145072979200
C    3.224980295200 -0.090345359800 -0.268405811600
C    3.110781589800 -0.802122517100 -1.457358371700
C    3.594324687900 -2.095376657200 -1.545554559400
C    4.219778586700 -2.683082781000 -0.458955410800
C    4.379401183900 -1.964079212700  0.714894396100
C    3.895852132000 -0.672533499600  0.806500670300
C   -3.246093612700 -0.253651605500  1.043935530300
C   -4.567525527800  0.140684014400  0.947390698800
H   -6.812654447300  1.563452390500  0.379428914100
H   -6.803587189400  1.240119916200 -1.362519381000
H   -7.219154787600 -0.039089777300 -0.220297666700
H   -4.792306197400  0.483854578900 -2.407207781400
H   -2.416423321500 -0.229665906800 -2.224203219300
H    0.562860631300  0.334917054400  2.743709863700
H    1.503211209500 -0.532574299600  1.519769233200
H    2.363130372500  1.954730067400  2.340435870800
H    0.972445355000  3.598938478500  0.743601422900
H   -0.053712484600  2.821571772900  1.982926195800
H   -0.990122266400  2.091012091200 -0.305762421300
H    0.886535524100  0.744662864400 -1.620488343800
H    0.983526253100  2.515569792500 -1.703164015700
H    2.637748908400 -0.352351543400 -2.318519993900
H    3.482448180700 -2.645716768700 -2.468871404600
H    4.591153648900 -3.695129118300 -0.529416185900
H    4.882335869200 -2.411734421400  1.560267972400
H    4.029223821300 -0.108906515000  1.720416542100
H   -2.784383083000 -0.474540520500  1.993032469500
H   -5.164415656000  0.240002243100  1.841790964000
