43
-65.59083540
C   -5.060870733100 -2.222273523100 -1.855865422500
C   -4.146459445100 -1.325108823900 -1.082643442200
C   -4.273813201300  0.058314170800 -1.145697059800
C   -3.418315413800  0.881236259200 -0.430822799400
C   -2.433903689100  0.313082926400  0.351706044500
S   -1.280827887700  1.327075754000  1.257523980500
O   -1.643848682900  2.720923641000  1.113239046700
O   -1.141841759800  0.826744023500  2.602292174400
N    0.136785838600  0.963134459100  0.437338572800
C    1.372153980100  1.028314652600  1.221867238600
C    2.340656346300  1.760620809600  0.298255924800
C    1.403077261600  2.784528088000 -0.339086871400
C    0.351014497100  1.764911061300 -0.767750919700
C    1.039725071900  0.899483493800 -1.821299717600
P    2.807745164300  0.708073693100 -1.208307466800
C    2.860352194100 -0.976912221400 -0.473330514400
C    1.772712575700 -1.821162978100 -0.275191653700
C    1.961382173200 -3.081176257100  0.266081200800
C    3.230383251700 -3.513806028600  0.615444760900
C    4.319428551000 -2.680164938800  0.420471802400
C    4.134615800900 -1.424139732700 -0.127589064400
C   -2.288002282600 -1.059719841100  0.433335483000
C   -3.143287645200 -1.874099039000 -0.284062497000
H   -4.496788766200 -2.771296616200 -2.608718843200
H   -5.523851430600 -2.951289615400 -1.193399904800
H   -5.840835265100 -1.652509899100 -2.352548513500
H   -5.047647514700  0.498535457500 -1.756602488700
H   -3.504302372700  1.956544075000 -0.462414313200
H    1.197805179600  1.591793240500  2.146201244300
H    1.690186854900  0.020247221700  1.496052985500
H    3.209702127600  2.164341637400  0.816633055300
H    1.840197825300  3.319739508400 -1.181136237600
H    1.004623319700  3.493286653000  0.388281416700
H   -0.602689349700  2.179481438400 -1.096729575900
H    0.536516773500 -0.052480744700 -1.980212817500
H    1.067276948200  1.430301238300 -2.776494357700
H    0.773176917500 -1.494670119600 -0.519832873600
H    1.110729503100 -3.730226948800  0.418174705200
H    3.369709260600 -4.498407433000  1.037602231700
H    5.311769180700 -3.011681001300  0.690034259200
H    4.982613210100 -0.772294808300 -0.292120711100
H   -1.512333556200 -1.459852337700  1.066686492000
H   -3.038471387700 -2.947338413900 -0.226444243900
