43
-65.59091378
C   -4.726868989200 -2.694653708500 -1.610691052800
C   -3.888797737600 -1.635790933700 -0.965942532300
C   -3.074261178000 -1.936515518500  0.122821886100
C   -2.315572350800 -0.952105017800  0.731251173100
C   -2.375726506500  0.341708609900  0.250449661000
S   -1.343265061300  1.581533702700  1.010304214400
O   -1.771293760200  2.889556155000  0.564646974000
O   -1.286363030100  1.355105190800  2.433806358200
N    0.145181887300  1.179456385200  0.353015150900
C    1.282051820700  1.060748528900  1.266072524900
C    2.428792191100  1.700253679200  0.488744484400
C    1.698310760200  2.850273877400 -0.202080504300
C    0.586886663200  1.981326274200 -0.786424079000
C    1.283084434700  1.066434755400 -1.793256493400
P    2.941058716100  0.653538814200 -1.006528480300
C    2.730668358500 -1.053542795200 -0.355513912800
C    1.537016757300 -1.764213304700 -0.278259388400
C    1.531791986000 -3.059675927200  0.209877156200
C    2.708901180700 -3.659838941500  0.626526605200
C    3.901909868800 -2.959565733000  0.553307493200
C    3.911471895200 -1.668633580700  0.058015222500
C   -3.176347749800  0.665867913700 -0.827498882200
C   -3.931192692300 -0.324030858800 -1.431963521900
H   -4.325731321200 -3.684803362000 -1.412735982100
H   -5.740366788800 -2.652557494500 -1.211169960000
H   -4.785962908700 -2.540034659700 -2.685244793500
H   -3.035773779800 -2.948881180200  0.496787566800
H   -1.683603690300 -1.161677954000  1.579797720500
H    1.073095100500  1.604638116300  2.194609909200
H    1.448957655200  0.011284098000  1.518946283200
H    3.273947370800  1.978314312700  1.117584743900
H    2.288814670800  3.351019712500 -0.968362983500
H    1.310871567400  3.582759607800  0.507629723100
H   -0.267341530200  2.519303425400 -1.197796373500
H    0.695593370500  0.182974246600 -2.037483611000
H    1.473807766700  1.612408156900 -2.720872027400
H    0.604441563400 -1.308171950200 -0.576583080200
H    0.600728913000 -3.604994789200  0.266144876100
H    2.696023868100 -4.671082661100  1.006263841400
H    4.823711054600 -3.421819802200  0.875720229600
H    4.841522559400 -1.119974527100 -0.012698038800
H   -3.202123932000  1.689220127600 -1.168349896400
H   -4.561166022900 -0.076676995400 -2.273500734000
