43
-65.59156671
C   -5.058387479700 -2.156401534700 -1.904707240400
C   -4.132391950300 -1.283920744300 -1.116990501300
C   -3.077222587500 -1.844093156000 -0.398997982500
C   -2.228374192800 -1.047106891200  0.346548310800
C   -2.436414203200  0.319230923100  0.375496162900
S   -1.292310818500  1.317066651400  1.310732472100
O   -1.658361535700  2.712646105300  1.189444512600
O   -1.161273135700  0.793862361700  2.648000626600
N    0.126639953200  0.969198354800  0.493290039700
C    1.364226599500  0.966986127900  1.273024812300
C    2.349785268200  1.728241672400  0.387181132300
C    1.429851030600  2.783909595900 -0.225007777000
C    0.366003414200  1.793331562800 -0.688905702100
C    1.039097503200  0.920256913300 -1.746602346700
P    2.820899168500  0.745698247500 -1.159625452600
C    2.877091938200 -0.969575544900 -0.518984444000
C    2.258705560900 -2.027837644500 -1.175872023500
C    2.401563726700 -3.322045893200 -0.705887291100
C    3.181894969400 -3.578755013300  0.408698609800
C    3.837210461400 -2.535523364500  1.043963446200
C    3.695227125700 -1.242223134200  0.577262312700
C   -3.474504513800  0.898873892700 -0.325876527800
C   -4.320792012700  0.094015805800 -1.070292000700
H   -4.522502861100 -2.996487305900 -2.339241961800
H   -5.831180827600 -2.556279435500 -1.247888039300
H   -5.545585284200 -1.593622865700 -2.696240868200
H   -2.921771577400 -2.912316979400 -0.426708579300
H   -1.406372338900 -1.459936522800  0.909453711700
H    1.203967549700  1.480882039700  2.228101294600
H    1.658469044900 -0.062531360100  1.487745189100
H    3.211913288500  2.113828684400  0.930152322000
H    1.880644153000  3.336393884400 -1.048836688100
H    1.035192345500  3.477285876400  0.518920202100
H   -0.577159736600  2.230969321600 -1.018002919700
H    0.533641131300 -0.039566294700 -1.840243642900
H    1.029967192500  1.420166901900 -2.717681400900
H    1.667165972700 -1.847166681900 -2.061816255300
H    1.905515276000 -4.134953490500 -1.216715397600
H    3.289925733300 -4.589172441300  0.775083378600
H    4.462414032600 -2.731595655300  1.903334996700
H    4.215210788300 -0.430200410000  1.067889064900
H   -3.603028934600  1.969270512800 -0.276602485000
H   -5.134544835100  0.542046378300 -1.620843711700
