43
-65.59078872
C   -5.439730458400 -1.888553471700 -1.567433133200
C   -4.384005657800 -1.133215219800 -0.823343876500
C   -4.453918845300  0.255645030200 -0.734099610600
C   -3.489507363500  0.969491768400 -0.045666387600
C   -2.449307423000  0.288898857800  0.558085585200
S   -1.164226234600  1.170439523700  1.424349074400
O   -1.464967955100  2.586617951600  1.433540133700
O   -0.921586146100  0.554165869200  2.704231902500
N    0.157272453200  0.818940678600  0.448880429400
C    1.459890239900  1.009325986100  1.094695120200
C    2.264034513000  1.785740587600  0.056672770400
C    1.183639769600  2.710408280000 -0.501557450600
C    0.181359918200  1.596516090800 -0.791427073900
C    0.826519507200  0.753262847400 -1.889763287300
P    2.659246175900  0.727444332600 -1.465954848600
C    2.929440562600 -0.925716878500 -0.707087153300
C    4.266064796300 -1.276368872500 -0.524619612800
C    4.608182218800 -2.498911715600  0.023787290000
C    3.614902211000 -3.394549576200  0.384610559600
C    2.283824411700 -3.057665940800  0.199232710700
C    1.938676420800 -1.832087021600 -0.343532561000
C   -2.359534682800 -1.087734341200  0.487823683300
C   -3.327527340400 -1.795055894300 -0.203848690000
H   -5.196136665300 -2.945188840200 -1.629032714300
H   -6.399145210400 -1.781363431200 -1.062838931400
H   -5.550928336500 -1.491413458500 -2.574666402700
H   -5.270985117400  0.779384051200 -1.207598682300
H   -3.526930070900  2.044835691500  0.039334164900
H    1.334876070500  1.591423206900  2.015885111400
H    1.885749975600  0.040288714900  1.362178278300
H    3.145376569100  2.274232134700  0.470856644100
H    1.484852285200  3.251162499000 -1.397922532800
H    0.804517201200  3.406970464800  0.247429661900
H   -0.832085365100  1.922191175900 -1.030763020700
H    0.392316376800 -0.241744293500 -1.967962732000
H    0.708319367000  1.250509368100 -2.856000360500
H    5.037598686700 -0.576291342500 -0.817164860900
H    5.648076449200 -2.755996472100  0.164983156600
H    3.876676302000 -4.353224690100  0.808287310700
H    1.507588287900 -3.754300892500  0.482667322600
H    0.895877394000 -1.578337789500 -0.460226266400
H   -1.537693615300 -1.579299557400  0.983733663400
H   -3.262976384100 -2.871363373800 -0.261967091700
