43
-65.59085606
C   -4.928853947700 -2.494183187100 -1.427733120700
C   -4.033162421100 -1.507560749200 -0.746905692000
C   -3.059521006700 -1.926125349600  0.155823798200
C   -2.225071282000 -1.008545178500  0.769871143400
C   -2.367061049500  0.334633780700  0.480321828900
S   -1.227490798300  1.479655383700  1.234600179800
O   -1.657497508000  2.834324388800  0.961526309600
O   -1.018498219500  1.123531165500  2.616002768700
N    0.167815630400  1.093182953400  0.390262543700
C    1.425193689100  1.083261867300  1.139428598000
C    2.410863944100  1.746061685600  0.182152352400
C    1.523015224500  2.823907330200 -0.437321065300
C    0.395111098300  1.871460209600 -0.826672213500
C    0.995937457000  0.956754064100 -1.892682491700
P    2.766422391100  0.659492831200 -1.330769181400
C    2.735086481500 -1.027016733700 -0.597766354900
C    3.990207693800 -1.572255878500 -0.331738459100
C    4.111983152600 -2.843103197400  0.199489682800
C    2.976450153900 -3.593329714700  0.457751442900
C    1.725197026100 -3.062313478400  0.189744195900
C    1.599996480400 -1.787195330600 -0.334307601300
C   -3.326588667700  0.775893438800 -0.410181430900
C   -4.157783449500 -0.147010201100 -1.019780614500
H   -4.839450169000 -3.479134810400 -0.978590702000
H   -5.965964869400 -2.170534060800 -1.370082203100
H   -4.663750411200 -2.569208738700 -2.481995688700
H   -2.955244023100 -2.977196989000  0.380373204900
H   -1.470161854000 -1.307845654500  1.479601360300
H    1.314243103300  1.660639894000  2.064810148600
H    1.688066435400  0.058421626800  1.410559501200
H    3.318866494100  2.096427722900  0.671810349600
H    1.968914035700  3.323149563100 -1.296689512200
H    1.194317957400  3.563185966600  0.294531061200
H   -0.539554958900  2.344349370200 -1.129494782800
H    0.430773545000  0.035997516000 -2.026454996200
H    1.026837016000  1.477021344300 -2.853538737800
H    4.873728683200 -0.985470889500 -0.546270925200
H    5.090926020800 -3.251174270300  0.405684416700
H    3.065797063800 -4.589763587300  0.865435747200
H    0.838465888700 -3.646248394900  0.390904348300
H    0.614565694500 -1.384135953000 -0.515005521700
H   -3.411801483300  1.834198031700 -0.602822965400
H   -4.912318774000  0.189783566400 -1.715039173700
