43
-65.59257855
C   -4.455761256900 -3.365897030300  0.134505846000
C   -3.703230210700 -2.077132608700  0.025156963300
C   -3.939696019800 -1.047420803900  0.932575003400
C   -3.264211388300  0.155862032000  0.828490381600
C   -2.349301103700  0.329932337300 -0.191533159600
S   -1.449455778200  1.860312540000 -0.352023294000
O   -1.659485063200  2.418636923900 -1.665219926300
O   -1.756880497000  2.719273630400  0.773248290800
N    0.127637575900  1.294874366400 -0.298278969000
C    0.575407347400  0.932116107100  1.044862705400
C    1.956168786000  1.580603033000  1.162177522100
C    1.731931317200  2.871171682100  0.373955789100
C    1.145001520500  2.185462972800 -0.856550356100
C    2.267748461800  1.321042097800 -1.430938054700
P    3.240788063400  0.729046530300  0.068733269000
C    2.753936618600 -1.031364888100  0.207006723800
C    2.661996741200 -1.858752380000 -0.907171248100
C    2.382899617900 -3.206118929900 -0.756895464400
C    2.216513755300 -3.748291050000  0.506338819500
C    2.349494963600 -2.939981071100  1.624367920400
C    2.627447272800 -1.593955203300  1.476920800700
C   -2.096878772700 -0.675542173500 -1.104758025300
C   -2.773897871900 -1.876859618400 -0.992361118500
H   -4.562184042300 -3.662856249700  1.175168540700
H   -5.456282061700 -3.242311840300 -0.280301891900
H   -3.954918108000 -4.158351504700 -0.414425263700
H   -4.658340543200 -1.189679552300  1.725957289900
H   -3.431264124500  0.965881013100  1.521631554100
H   -0.114377790300  1.356934645500  1.784381881800
H    0.582468458500 -0.154708758000  1.151164445400
H    2.286636709300  1.712128815000  2.191906454200
H    2.648232081000  3.418948664800  0.156032762100
H    1.006669047700  3.529053686900  0.855402524200
H    0.675263433400  2.833231053200 -1.597586603000
H    1.864832820000  0.497740788700 -2.018721423200
H    2.921085757000  1.920465114500 -2.068977865300
H    2.816016357200 -1.454288194900 -1.897467943900
H    2.302317615700 -3.836800233200 -1.630715485200
H    1.997947477200 -4.799801797200  0.621065488900
H    2.241031500700 -3.361214253000  2.613599773700
H    2.743435270400 -0.966454363700  2.350489058200
H   -1.377634522900 -0.499438138800 -1.888156625900
H   -2.580345133300 -2.667118517000 -1.702164300400
