43
-65.59254208
C   -4.636001939600 -3.140698885300  0.661574417600
C   -3.834450991600 -1.919047430800  0.338886588700
C   -2.940677584900 -1.929617314200 -0.731043705700
C   -2.211025347500 -0.800764776900 -1.053585523000
C   -2.374233095500  0.346707477000 -0.299864271800
S   -1.409713063100  1.782603984300 -0.729872092500
O   -1.588849157600  2.092565524800 -2.126897650000
O   -1.688606550600  2.848144783300  0.211041453700
N    0.145328943600  1.177606468100 -0.550101423400
C    0.568356443000  1.060420122100  0.844423886800
C    1.949580167200  1.719684784500  0.873919154900
C    1.757696081400  2.834554951300 -0.154485576800
C    1.193072656700  1.926589725800 -1.243426230000
C    2.314982781800  0.952451375600 -1.605723660700
P    3.259479342900  0.677298697600  0.000285585800
C    2.780288445300 -1.026744101300  0.469199540400
C    2.600031105700 -1.333171752700  1.817576104300
C    2.331643355100 -2.630549391900  2.212545537500
C    2.263232712400 -3.643979271500  1.269596160900
C    2.483370844100 -3.355222085500 -0.066750826900
C    2.751932572300 -2.057191589200 -0.464888390800
C   -3.250783630800  0.382684111000  0.765859590400
C   -3.979902787100 -0.751811002600  1.081608649900
H   -4.020383988200 -4.034253938300  0.589841431700
H   -5.059969512100 -3.077861353400  1.659777174700
H   -5.453805489000 -3.241943652300 -0.051886643200
H   -2.820304437600 -2.830351391100 -1.314249903100
H   -1.520045230300 -0.786017128700 -1.880946872600
H   -0.134046973300  1.609162730400  1.482983037900
H    0.570831121800  0.009591143500  1.141828264900
H    2.251667308800  2.047179225300  1.868070972600
H    2.684907409000  3.324760084200 -0.449991031300
H    1.027093214000  3.576904783100  0.170706249300
H    0.753598448900  2.421784685700 -2.109968935800
H    1.910977204500  0.027298853900 -2.014458688800
H    2.983752196600  1.400238617900 -2.344215839400
H    2.666534258700 -0.545470279600  2.555979023300
H    2.180329811200 -2.853248240400  3.259085294300
H    2.052895102300 -4.657529339400  1.578083538600
H    2.453210073900 -4.145876665900 -0.802807009900
H    2.947744021400 -1.848434248700 -1.507159272600
H   -3.350037859700  1.298416660800  1.328055464100
H   -4.668813962100 -0.727457654900  1.912790630700
