43
-65.59269834
C   -4.047914366000 -3.393674387800  0.719211460300
C   -3.402709248200 -2.099254749400  0.334851863700
C   -2.560687095700 -2.015649804700 -0.770180899300
C   -1.967747285600 -0.814208821300 -1.116325666400
C   -2.218399228400  0.308501802900 -0.352167383200
S   -1.369509247100  1.816682074800 -0.777383964400
O   -1.503746185600  2.089446911200 -2.187256343900
O   -1.769601185200  2.871254236100  0.131511702700
N    0.205206001000  1.326274265000 -0.511025702500
C    0.587413768800  1.272884370800  0.896591109400
C    2.024099799500  1.792545320000  0.894103669900
C    1.915224688000  2.900521109800 -0.153954066100
C    1.275892567000  2.021238027300 -1.225056192400
C    2.338454357200  0.985861072600 -1.592856804400
P    3.213277199500  0.599749399900  0.029710153600
C    2.508545516900 -1.027475483600  0.492279427700
C    2.304525415500 -1.306805714300  1.843541535300
C    1.835520670300 -2.544343939200  2.242646972700
C    1.586012221200 -3.529390377000  1.300212046600
C    1.833793147300 -3.276748188500 -0.038265521300
C    2.304659156700 -2.038696431400 -0.440090286200
C   -3.051443589400  0.252827910900  0.748288365200
C   -3.643304379700 -0.950950481700  1.086483888000
H   -5.131936719200 -3.299773781800  0.674255984800
H   -3.739270158400 -4.196810428400  0.056459337000
H   -3.781765940500 -3.658157544000  1.741165751600
H   -2.366234536700 -2.896843157000 -1.362984414700
H   -1.316675537200 -0.726106818900 -1.971042980400
H   -0.064285882200  1.937423005400  1.478837296300
H    0.476886160800  0.253864110000  1.272398152000
H    2.373243532600  2.108868072700  1.876467877500
H    2.875599062800  3.310007938400 -0.465085966700
H    1.251552987900  3.705460386600  0.165402263400
H    0.851240865900  2.533155776100 -2.089498483900
H    1.887195700700  0.104115542600 -2.044206790600
H    3.058368029200  1.410474451900 -2.296329453600
H    2.510479238800 -0.542737305900  2.581344604600
H    1.667006043500 -2.742431738000  3.291527725600
H    1.214653201800 -4.494851345900  1.610828169400
H    1.665720400800 -4.049783411000 -0.774376507800
H    2.517772457700 -1.865692773900 -1.485210419000
H   -3.222044969600  1.153073447300  1.318244607900
H   -4.297649762000 -1.003243308900  1.944012360300
