43
-65.59253310
C   -3.953743091700 -3.525462254800  0.205372919500
C   -3.329966343500 -2.179227478900  0.010125175500
C   -2.782170425200 -1.814633544200 -1.216460136400
C   -2.214852989600 -0.564554880100 -1.392561903600
C   -2.200941362800  0.326652254600 -0.337536830200
S   -1.378037177400  1.891838112900 -0.557701184600
O   -1.540186529900  2.344203514300 -1.917746253800
O   -1.778334669700  2.802936937200  0.493126424700
N    0.207995537500  1.398241414600 -0.370705670800
C    0.680989963300  1.327875035500  1.009245348200
C    2.133634585200  1.780748602900  0.902246306100
C    1.997249810400  2.904067471100 -0.125376263900
C    1.247856233200  2.063306072000 -1.156392167700
C    2.257357845000  1.009113819400 -1.611914841000
P    3.196237428500  0.533431396800 -0.053720892700
C    2.440746160300 -1.067201116500  0.449970981100
C    1.260980908200 -1.609302354900 -0.050932437700
C    0.812682463500 -2.837507329700  0.402830494100
C    1.532919052300 -3.540709572600  1.354751176500
C    2.710599296400 -3.011049534300  1.856423725200
C    3.162519787800 -1.785519200100  1.401975368600
C   -2.739007354000 -0.010553491800  0.889221762300
C   -3.303450744200 -1.262034375100  1.058523596600
H   -3.697856600300 -4.197757801700 -0.608806636800
H   -3.629867559900 -3.964416371800  1.146618141500
H   -5.038533912600 -3.427437342700  0.241480646700
H   -2.797845044900 -2.514039293500 -2.039283840300
H   -1.791479987300 -0.258805758800 -2.336522296700
H    0.099198060100  2.019904932500  1.631841988900
H    0.556545619600  0.315725086300  1.400587386300
H    2.571902083900  2.059285714900  1.860139622500
H    2.949110451300  3.277641100200 -0.500451406300
H    1.393524970700  3.732078058700  0.249352229900
H    0.779254046900  2.602757500200 -1.980303736100
H    1.787848427800  0.156226939300 -2.099045524100
H    2.965228151400  1.452751113000 -2.316982862400
H    0.672452941000 -1.069416260500 -0.777593084500
H   -0.107923931600 -3.243723581200  0.010043340000
H    1.178065560100 -4.499671944800  1.703084074100
H    3.278616159100 -3.555061221400  2.597246441800
H    4.085921699400 -1.370447841100  1.783793995800
H   -2.713648090100  0.715423683400  1.686800479100
H   -3.727431485500 -1.532886421000  2.014011272100
