43
-65.59080348
C   -5.254831785600 -1.791532703800 -2.059229893400
C   -4.274428913900 -1.071791574400 -1.187683365900
C   -3.274391318500 -1.761590749900 -0.507980962700
C   -2.369460885600 -1.085763158500  0.291916081900
C   -2.465619571500  0.287086110600  0.410774710500
S   -1.251747737900  1.125208573700  1.412046370000
O   -1.556597648400  2.539372587900  1.468780747300
O   -1.100116139400  0.446103047000  2.673972945800
N    0.134556280600  0.819297553500  0.515333798900
C    1.391946846900  0.929846067000  1.260855911900
C    2.284824694500  1.749533086200  0.334705261500
C    1.268547203800  2.740033630500 -0.230952531000
C    0.262354087300  1.677247352000 -0.663977618500
C    0.961547273600  0.891943829400 -1.772037384700
P    2.758645097300  0.783158410000 -1.226524671200
C    2.931824766000 -0.924601938300 -0.566576659100
C    1.894487263200 -1.821536013700 -0.332317943800
C    2.168838354300 -3.090540044500  0.147419321800
C    3.474583511000 -3.480450941600  0.397662981500
C    4.513934345100 -2.594712736200  0.164917059400
C    4.243003269400 -1.328487464000 -0.320500603800
C   -3.450807306900  0.994912019200 -0.250893455100
C   -4.352708744600  0.312400204800 -1.047470072600
H   -6.272774079800 -1.574781893100 -1.740099325800
H   -5.154409251500 -1.457054854900 -3.090810025000
H   -5.096480022000 -2.865422714200 -2.023377854500
H   -3.204429812200 -2.834809632900 -0.604329553600
H   -1.592632907300 -1.599049120400  0.836022294200
H    1.216532378800  1.452761745300  2.208883312600
H    1.775198637600 -0.066427551600  1.490273706900
H    3.147137714200  2.183725854200  0.839495706400
H    1.644393238800  3.330687988500 -1.065504469500
H    0.855199745300  3.395831007800  0.536566035800
H   -0.724080664900  2.047187729100 -0.947371891000
H    0.509438018600 -0.082243932500 -1.949030963700
H    0.923683248700  1.457084761000 -2.706922857300
H    0.869213408100 -1.528341771600 -0.500852701300
H    1.356787199200 -3.779952398100  0.330331076500
H    3.680892616100 -4.472607774300  0.772005786600
H    5.534498628000 -2.893075142100  0.356764575300
H    5.051260924600 -0.635326075800 -0.513335519400
H   -3.496798787200  2.065912337300 -0.125108907800
H   -5.126855560800  0.857277507000 -1.566987819900
