43
-65.59169646
C   -5.513878600400 -1.577665168700 -2.014515810800
C   -4.481418324500 -0.924474426600 -1.150550343600
C   -3.432292474200 -1.660369035400 -0.606119000100
C   -2.472766120100 -1.047956467100  0.180987260700
C   -2.563945570700  0.309303489100  0.422313235100
S   -1.302323819700  1.071362116300  1.425668897000
O   -1.535596156400  2.498783966900  1.497703028700
O   -1.186556646600  0.377545002700  2.683921148600
N    0.067943483300  0.699359022500  0.528006821600
C    1.331914172500  0.793444918000  1.262669405900
C    2.209188437500  1.692026916800  0.388572417100
C    1.165419919100  2.638959423100 -0.202729943100
C    0.217184303000  1.535006950400 -0.661072642300
C    0.976965128700  0.729880310700 -1.716068412500
P    2.782269064900  0.812539771500 -1.181252514200
C    3.112631127300 -0.886163053900 -0.583176491900
C    2.683590057600 -2.004591466900 -1.290344232600
C    3.035115146300 -3.275329993600 -0.869241440800
C    3.836540467500 -3.443937801900  0.247460131000
C    4.302140820300 -2.333586886100  0.934063561500
C    3.953012746600 -1.063226317800  0.515326617800
C   -3.595265041600  1.062395417800 -0.105445359400
C   -4.551287273000  0.442360958600 -0.890317578200
H   -5.452194831600 -2.660034284100 -1.947416221500
H   -6.512463039400 -1.259411839200 -1.723176554900
H   -5.363649360100 -1.286984454100 -3.053975435200
H   -3.367057312400 -2.720905009500 -0.798255405700
H   -1.655116084500 -1.599706654400  0.616732073500
H    1.150705444500  1.243819956400  2.245170703000
H    1.736351287700 -0.209283480100  1.417480216700
H    3.019931678800  2.170766697600  0.936357137700
H    1.540469286500  3.245264476700 -1.026960264400
H    0.698934703200  3.274886368600  0.550549175000
H   -0.768454389600  1.864544826500 -0.993083254100
H    0.605565662000 -0.292808784900 -1.766342351000
H    0.872089430700  1.193207956100 -2.699419355000
H    2.078005971900 -1.884736770000 -2.177481595400
H    2.686697953600 -4.137932369500 -1.419118791900
H    4.108099135200 -4.436519846200  0.575898279100
H    4.941970764600 -2.458599979500  1.795949035400
H    4.326558573900 -0.197410994700  1.045464912800
H   -3.631010421800  2.119317804600  0.110367810700
H   -5.361315434000  1.023585898000 -1.305210387700
