43
-65.59084948
C   -5.212540867500 -2.145672933300 -1.528214563500
C   -4.220191437800 -1.280026912900 -0.817850973300
C   -3.194563381300 -1.849836596800 -0.066095307900
C   -2.287944005300 -1.052986500200  0.608814337400
C   -2.406994938800  0.321839745600  0.531478938300
S   -1.181514482800  1.313401788300  1.363984618000
O   -1.537973369000  2.712759539800  1.262750326100
O   -0.947440583100  0.796899951700  2.689022423800
N    0.167693979100  0.943816839500  0.437930133000
C    1.461454180400  1.046179045500  1.117793576200
C    2.339836712000  1.767748030500  0.100703451100
C    1.338003582100  2.764799327400 -0.479138016000
C    0.269488420600  1.722197307100 -0.797154595200
C    0.881317560500  0.842583267200 -1.885802070800
P    2.696712736500  0.688521455700 -1.417336593600
C    2.830607685400 -0.984511169900 -0.665491984200
C    4.134480293500 -1.436068174300 -0.468178736400
C    4.376530531000 -2.686099794300  0.071490250900
C    3.313972823600 -3.508405208200  0.408591216200
C    2.014617204700 -3.070801049900  0.208860416000
C    1.769479505300 -1.817508565700 -0.325031262400
C   -3.416228016300  0.911215991300 -0.203924270100
C   -4.321170113100  0.107175811400 -0.875889092500
H   -4.762949052800 -3.089874964300 -1.824202395700
H   -6.048096568800 -2.364478847400 -0.862818053800
H   -5.606457797100 -1.643884389300 -2.408145785300
H   -3.108278929400 -2.924805515400 -0.010716771500
H   -1.490931194200 -1.470171409200  1.203581763300
H    1.353635609900  1.632154012000  2.038468396300
H    1.816399272200  0.050309061600  1.391069765400
H    3.243008207500  2.194279261300  0.535811089200
H    1.696267317600  3.286029795400 -1.366012951100
H    0.990326843800  3.484704721100  0.263127437200
H   -0.714195668600  2.116780660600 -1.054806801700
H    0.382167022800 -0.120041590900 -1.981332287100
H    0.821140000300  1.351835796400 -2.851121177900
H    4.960288182900 -0.793171140500 -0.743226019500
H    5.392207361700 -3.021682686300  0.223719478500
H    3.497153691200 -4.488323694900  0.824859137800
H    1.184847416200 -3.710988420600  0.472907700700
H    0.749916349300 -1.486063330600 -0.453325156700
H   -3.479517406900  1.988218016900 -0.233479811200
H   -5.113389256700  0.561913494200 -1.451759710700
