43
-65.59079751
C   -5.464446296100 -1.862658347900 -1.556637181400
C   -4.399032889800 -1.105237916200 -0.828751700900
C   -3.337651577500 -1.770167499400 -0.219929266400
C   -2.364813934700 -1.066328745200  0.467673597200
C   -2.453890113600  0.310291232800  0.544732987400
S   -1.164647221700  1.185751604100  1.410947264200
O   -1.452655927700  2.604566738900  1.409952878300
O   -0.935613277000  0.575615469800  2.696372770200
N    0.158971005900  0.815913394700  0.444398101600
C    1.459689909500  0.985752486200  1.099792246900
C    2.280206759100  1.761503411000  0.073918816900
C    1.213848460600  2.700073665300 -0.487959578400
C    0.202787160300  1.598035446600 -0.792433554300
C    0.848891061200  0.752882929000 -1.888771229200
P    2.678294362000  0.709804760600 -1.452390868600
C    2.931911060400 -0.948505951500 -0.699197521400
C    4.264864120200 -1.303816714700 -0.499478292000
C    4.595707164300 -2.529164761000  0.049520759800
C    3.594810627500 -3.422994021700  0.393530321300
C    2.267484008700 -3.081986688500  0.189771917500
C    1.933563701100 -1.853534735300 -0.353614339500
C   -3.497935850700  0.993600810300 -0.048499231300
C   -4.467832742600  0.282807000400 -0.733234980400
H   -5.732248281300 -1.356599267900 -2.481282665700
H   -5.139760975400 -2.874042451400 -1.783952279400
H   -6.360466769400 -1.921148136700 -0.938785027800
H   -3.274094584300 -2.846210451800 -0.284103161900
H   -1.539130897100 -1.559982240900  0.955017214600
H    1.335305400200  1.560689961100  2.025434200800
H    1.872561982800  0.009434939400  1.361238526800
H    3.162464853800  2.238736405600  0.499133580000
H    1.528146555400  3.242855250800 -1.378592562700
H    0.835104174000  3.396087167600  0.261728629800
H   -0.805040526000  1.935362485800 -1.039337041000
H    0.406042038200 -0.237737138800 -1.973754142000
H    0.742203861000  1.254543767500 -2.854070300200
H    5.042401726700 -0.604881929100 -0.778606343300
H    5.632762921800 -2.789656181200  0.204641058200
H    3.847826781300 -4.383589072500  0.818171120800
H    1.485354543100 -3.777619368100  0.459175251800
H    0.893228736300 -1.596996335000 -0.485351463500
H   -3.533946806400  2.068701185200  0.040161461900
H   -5.287750378100  0.809523009400 -1.198431298200
