43
-65.59145212
C   -6.053696467800  0.234965369200  1.784577559000
C   -4.831714655900  0.167746140800  0.923674546500
C   -4.180516377200 -1.049281102100  0.732031087600
C   -3.047856971600 -1.128775961900 -0.058093194700
C   -2.558549456300  0.017026919200 -0.658460236000
S   -1.053982729800 -0.071093893400 -1.626481348100
O   -0.849532047900 -1.439431851000 -2.028502926700
O   -1.097976293900  0.935639785200 -2.658299124900
N    0.199145203400  0.328352281500 -0.617113668300
C    0.387190118300 -0.499863323600  0.568046599500
C    0.824166805900  0.507158161600  1.631646511700
C   -0.052110723100  1.705548668900  1.268616833300
C    0.337831904100  1.721810715000 -0.207742710400
C    1.825636837800  2.076443230300 -0.223183868500
P    2.552709480700  1.193128157300  1.268174361800
C    3.357413828400 -0.319144056200  0.603018798900
C    3.608996553700 -0.601049257300 -0.733600181700
C    4.260823722900 -1.770857658000 -1.086900343300
C    4.676205627100 -2.665323013400 -0.115100487900
C    4.443954723900 -2.384687982300  1.222272189600
C    3.797665007100 -1.216230917500  1.576947461500
C   -3.192735797600  1.232834086200 -0.491609667500
C   -4.328892439300  1.303885217100  0.297039268600
H   -6.825714384400 -0.425139626000  1.392399574300
H   -5.819858236700 -0.095299412700  2.795546974800
H   -6.447082968700  1.246425270100  1.828300653800
H   -4.567089197600 -1.940399763600  1.203919399400
H   -2.543760024000 -2.066029056200 -0.237808581000
H   -0.557296338900 -0.980732476500  0.852455041100
H    1.119890105900 -1.282552109300  0.363152995600
H    0.720120336300  0.131430336300  2.648691587400
H    0.229534509200  2.622906241700  1.783743278000
H   -1.112815697000  1.503928892600  1.421785188400
H   -0.252465642900  2.349897417900 -0.874614182600
H    2.296886217900  1.797164710200 -1.163230116000
H    1.959467064400  3.152467850300 -0.084436582900
H    3.290015904400  0.074159247700 -1.512935955700
H    4.442745503300 -1.984069707200 -2.130762807200
H    5.183131567000 -3.576107244500 -0.398799433800
H    4.771566488700 -3.075117337500  1.986128037300
H    3.621298177700 -0.987220855000  2.620008382000
H   -2.800309730200  2.103067745500 -0.993920354400
H   -4.828598472700  2.252458901800  0.425253857500
