43
-65.59157571
C   -4.651864635600 -2.908808893500 -1.096811801600
C   -3.840881855800 -1.751613831600 -0.603628209000
C   -2.802169694300 -1.964139982500  0.302399240800
C   -2.046990032000 -0.906238596900  0.771803954100
C   -2.330523903300  0.373981316000  0.333011175100
S   -1.301613208400  1.711353091000  0.911745426700
O   -1.775315305400  2.952627583600  0.339658817000
O   -1.189572437500  1.646976328500  2.349308044200
N    0.165922803300  1.269955101500  0.247735920300
C    1.329190107400  1.164036974900  1.123750844900
C    2.470403975900  1.712331164100  0.267692864100
C    1.753245073000  2.830717797500 -0.487338426800
C    0.593546892500  1.960192320100 -0.964320484700
C    1.210870986200  0.925264862000 -1.905022452100
P    2.903729740100  0.555017655800 -1.165332409700
C    2.672807471500 -1.093199459400 -0.399248521500
C    3.374257732700 -1.380781787100  0.771787479900
C    3.300019901900 -2.635926394800  1.345801729500
C    2.541347027600 -3.629315782300  0.746578598300
C    1.876242658200 -3.364417249500 -0.438550758700
C    1.950678947100 -2.108618910400 -1.016407741700
C   -3.350654823600  0.610347013500 -0.565354637600
C   -4.105582403500 -0.454694380400 -1.029765752200
H   -5.382695887300 -2.588857386700 -1.833869911700
H   -4.004547628400 -3.660477351600 -1.544951601000
H   -5.176774580100 -3.377975780300 -0.265862299800
H   -2.587595077700 -2.967355540500  0.639587451000
H   -1.243395961000 -1.050402419600  1.476493436900
H    1.174145672500  1.768656401700  2.025083558000
H    1.466052619100  0.124870229500  1.431172435600
H    3.338923636400  2.019519140100  0.849146983400
H    2.332958003000  3.247999837800 -1.310091038900
H    1.415682694600  3.630148712700  0.173657108800
H   -0.256477743100  2.492145023300 -1.391931829300
H    0.583490984100  0.038137633400 -1.977919089700
H    1.342517699700  1.346188725100 -2.904296307000
H    3.974354282300 -0.608908877700  1.235033669500
H    3.837026088500 -2.841438742000  2.260824623200
H    2.480415741500 -4.609462476500  1.196503781400
H    1.300850857700 -4.141779010500 -0.920504193500
H    1.446553282700 -1.925447602200 -1.954318450000
H   -3.539558773800  1.623896775600 -0.883405136300
H   -4.906945335200 -0.272916116400 -1.730352667900
