43
-65.59167619
C   -5.349783996700 -1.800008126700 -1.981682414500
C   -4.360391728800 -1.064063197100 -1.133944952500
C   -3.280393781500 -1.727817681300 -0.557390548700
C   -2.357624991000 -1.041187959700  0.211624521300
C   -2.516247686000  0.318007232100  0.403049449000
S   -1.295440808200  1.171581564100  1.383027211500
O   -1.577317431700  2.592026840400  1.380752047700
O   -1.172386214400  0.542453626300  2.674373083000
N    0.091795533500  0.802276126400  0.515009462800
C    1.348243239100  0.864004279200  1.264351497900
C    2.265282028200  1.710005577000  0.380114774800
C    1.263943596500  2.696968059800 -0.218950351300
C    0.270792577900  1.631989156200 -0.674209140400
C    0.996221529200  0.798863636600 -1.730477497000
P    2.798075770700  0.784321895500 -1.179272784800
C    3.025514559000 -0.923525675800 -0.558190819600
C    2.514889972600 -2.026641973200 -1.234127659100
C    2.788725764600 -3.308188206500 -0.788432926900
C    3.593618632500 -3.504813319000  0.321037547200
C    4.140944061500 -2.412565363900  0.975751622900
C    3.868608861600 -1.131692736800  0.533002892000
C   -3.578429963300  1.000245753500 -0.157789955900
C   -4.497934780600  0.306048599800 -0.924638379600
H   -6.361517980400 -1.458802572800 -1.775432872700
H   -5.143532180200 -1.611807870000 -3.035308987900
H   -5.292208264600 -2.870872024800 -1.808261186200
H   -3.162609532000 -2.790184697700 -0.710523653200
H   -1.516763946700 -1.536180716100  0.670819525400
H    1.174755044000  1.342168874400  2.235215090200
H    1.713313149700 -0.149315437700  1.445376672000
H    3.098074897400  2.156664741100  0.921969943000
H    1.665398940500  3.282907262300 -1.045323925600
H    0.824214045300  3.356443329200  0.530365267600
H   -0.701722730800  2.001074170400 -1.002949543300
H    0.572089234400 -0.202035517500 -1.795270442300
H    0.924989123700  1.277036408400 -2.709800001900
H    1.906047242900 -1.888629106400 -2.116191415000
H    2.376239856500 -4.157753759600 -1.313727043300
H    3.804302090000 -4.505678893000  0.668473276300
H    4.784148968700 -2.560284930400  1.831496721200
H    4.304883409800 -0.280603707200  1.038623584100
H   -3.666880291400  2.061452059600  0.017964984200
H   -5.331864341500  0.832120952700 -1.364992171100
