43
-65.59260858
C   -4.485244667700 -3.217350844900  0.648098038900
C   -3.716338118400 -1.974314429600  0.327714413100
C   -2.753239311900 -1.980375216100 -0.679435986000
C   -2.057393417300 -0.828944218200 -0.998495155100
C   -2.323883625900  0.335740448700 -0.303654202000
S   -1.394674638900  1.797678774100 -0.724040809800
O   -1.565180752100  2.103517135300 -2.123294267900
O   -1.711478731400  2.855431573300  0.213646201600
N    0.168920080100  1.229727149200 -0.525635587400
C    0.586644512800  1.127565676900  0.870911329600
C    1.988212517300  1.740341090800  0.881564849400
C    1.816178158000  2.859125126200 -0.146074064100
C    1.218713876000  1.965859597800 -1.229570682400
C    2.318805576100  0.973745997000 -1.607862782500
P    3.252148945900  0.649754628100 -0.004633784200
C    2.698166257200 -1.033083904000  0.460667990500
C    2.535651221100 -1.335719971200  1.812388229200
C    2.206018269200 -2.617757735400  2.210567856800
C    2.056554102900 -3.621458445400  1.266567171300
C    2.258127381200 -3.339002598900 -0.073919713400
C    2.588817217700 -2.056204914500 -0.475093024200
C   -3.271308639900  0.367938716900  0.699986326000
C   -3.966571424000 -0.788328604900  1.011510298400
H   -5.345443336800 -3.295991275800 -0.016957001400
H   -3.869576642300 -4.101386028600  0.504621502100
H   -4.850895288300 -3.196741875300  1.671033778400
H   -2.549755582200 -2.894743975200 -1.216360246700
H   -1.311864342900 -0.811900426800 -1.776905029800
H   -0.096077314200  1.714173155000  1.498032053500
H    0.552870938000  0.084283481000  1.191702341600
H    2.313945773900  2.059211806300  1.871059922000
H    2.752773752800  3.324689363200 -0.451330123300
H    1.109450758900  3.620958820800  0.186712675800
H    0.777042260400  2.471141715600 -2.089223537400
H    1.895949598700  0.066036324700 -2.035481094800
H    3.000032352400  1.419841055200 -2.335981934600
H    2.664632937100 -0.556074598800  2.551158489500
H    2.069974209900 -2.836364687100  3.260064786800
H    1.797929148900 -4.623072185400  1.577216864800
H    2.164961438800 -4.123281129600 -0.811512296300
H    2.769716487300 -1.855971752600 -1.521601158000
H   -3.448024434300  1.297022662100  1.219662579800
H   -4.710406657400 -0.768292820100  1.794066624600
