43
-65.59270180
C   -4.091354898800 -3.379480360800  0.700230303000
C   -3.429204112700 -2.088757785600  0.332890836400
C   -2.568224960800 -2.010869340000 -0.758340462000
C   -1.968407341000 -0.811844712000 -1.099658803900
C   -2.230346127800  0.314523673600 -0.344276495800
S   -1.374258444800  1.819731496100 -0.765240201100
O   -1.514193739900  2.099825775900 -2.173145661500
O   -1.764674859200  2.872258788200  0.150030139200
N    0.199606804400  1.319807741300 -0.509861097100
C    0.590083867100  1.259685192400  0.895329249500
C    2.024470331000  1.786303008900  0.889447850200
C    1.908129093400  2.895626024100 -0.156344029800
C    1.267446642200  2.016238147100 -1.226487029700
C    2.329949547500  0.982180119400 -1.598480365900
P    3.216543812300  0.601480208800  0.018951597200
C    2.527148061900 -1.030997702900  0.485773628800
C    2.334318984600 -1.312213073700  1.838260124200
C    1.881021768800 -2.554649470400  2.240343447000
C    1.635831510800 -3.542305195500  1.299540481900
C    1.871424991700 -3.286869744500 -0.040633580900
C    2.327002236900 -2.044087095100 -0.445413219900
C   -3.081847677000  0.264603951200  0.741905646300
C   -3.681201554400 -0.937223628400  1.075086439000
H   -4.039864982700 -3.544096775500  1.774192189300
H   -5.144012107900 -3.346930535900  0.419877869300
H   -3.625809741300 -4.216922901300  0.188592266600
H   -2.365028956200 -2.895165265600 -1.343523584100
H   -1.302352697300 -0.728084455700 -1.943125604900
H   -0.061990979200  1.917144578800  1.485004767200
H    0.487064161600  0.237731834300  1.265447577800
H    2.374939345700  2.102329690400  1.871429845100
H    2.866160651200  3.308607164400 -0.470111002400
H    1.242868474100  3.697898178400  0.166400584600
H    0.839480187500  2.528353406800 -2.089159286800
H    1.877041825900  0.098423447400 -2.044306480700
H    3.044124228200  1.406138950200 -2.308115637800
H    2.536809925600 -0.545944224800  2.574728390800
H    1.721555918200 -2.754572179000  3.290290279000
H    1.277071043200 -4.511737431700  1.612623334900
H    1.706370668300 -4.061565946800 -0.775694444600
H    2.531410184200 -1.868724127600 -1.491898149700
H   -3.259846353100  1.167040827800  1.306129794700
H   -4.349631730000 -0.984545565800  1.921967769500
