43
-65.59217547
C   -2.933300509700 -3.621214923300 -1.254875865300
C   -2.508887919800 -2.262439054500 -0.793185081300
C   -2.107496775900 -2.048295661700  0.521589256800
C   -1.756202934800 -0.782042232400  0.956753467600
C   -1.805157818800  0.274995438000  0.070197968300
S   -1.395805697100  1.922347307000  0.637889648300
O   -2.004975931600  2.880773605700 -0.251847658400
O   -1.715291105300  1.997571824000  2.042337260800
N    0.225692173100  2.125543635100  0.507467874300
C    1.175379550900  1.462618390300  1.383418535600
C    2.501813760600  1.626406922700  0.632991955400
C    2.262532512000  2.921396290300 -0.149916258600
C    0.905430508400  2.503215612600 -0.712152629300
C    1.180726115200  1.279816815700 -1.598526249200
P    2.663953258100  0.425321263600 -0.810966543900
C    1.944486835900 -1.125969152500 -0.162557914800
C    1.164774990000 -1.933551404600 -0.984762662300
C    0.747274139800 -3.177846408800 -0.549182886300
C    1.110980754500 -3.634722904300  0.706393382400
C    1.909073088600 -2.848384540300  1.521654501100
C    2.337489860100 -1.608616450600  1.084757595700
C   -2.196826282800  0.087229491300 -1.241935891500
C   -2.545071685700 -1.180870012500 -1.670342335800
H   -2.590886970600 -3.810094620100 -2.269628008800
H   -2.550908674800 -4.394794733500 -0.594897349200
H   -4.021820913400 -3.682976312800 -1.255642878300
H   -2.078201381200 -2.875597538700  1.214298253200
H   -1.471008936000 -0.593788680400  1.979988988300
H    1.187126768200  1.973151207500  2.353883106800
H    0.899179970700  0.417336625200  1.550640664400
H    3.373418726600  1.632714302400  1.286162429400
H    3.005206831000  3.099235664500 -0.927271125800
H    2.181815357100  3.792749636500  0.498370379500
H    0.321790096500  3.274935751100 -1.215042117800
H    0.312284461100  0.623200337700 -1.656615185900
H    1.444763821200  1.596556364400 -2.610298511600
H    0.892161180200 -1.591222360300 -1.973336812100
H    0.145824995400 -3.796938878100 -1.197014134300
H    0.786091122300 -4.607494233300  1.045180276700
H    2.208031708700 -3.206539643500  2.496424542900
H    2.981098693800 -1.006946261000  1.711959260700
H   -2.244069570400  0.943405949500 -1.897677961000
H   -2.858845208300 -1.332550756200 -2.692632754200
