43
SIG-NIHDA-401 | MMFF94/ETKDGv3 ensemble | attach_idx=14 axis_idx=10 relative_energy_kcal_mol=0.01007590 boltzmann_weight=0.2582886588
C    3.9551166881  3.2193901452 -1.2617438685
C    3.4037669541  1.8730058708 -0.8930976011
C    2.3914441152  1.2882829852 -1.6668043962
C    1.8566540218  0.0501873631 -1.3101933497
C    2.3272962553 -0.5983547978 -0.1654576544
S    1.6155165812 -2.1560484732  0.2926786310
O    2.0956020500 -2.5199642424  1.6097846053
O    1.7605915995 -3.0528654414 -0.8334565989
N   -0.0253080678 -1.7723472081  0.4447401191
C   -0.4017626017 -0.7618607545  1.4888214053
C   -1.7106291714 -1.3217527372  2.0807310175
C   -1.3525734964 -2.8103110932  2.1351036708
C   -0.9523649766 -2.9348195425  0.6610421768
C   -2.2362821884 -2.6666238843 -0.1595603154
P   -3.1538441385 -1.3412062946  0.8194094028
C   -2.9206654763  0.2355263159 -0.0483902318
C   -2.6701450630  0.3325977712 -1.4220031270
C   -2.5013054637  1.5779419762 -2.0368803445
C   -2.5995496118  2.7480158749 -1.2898379926
C   -2.8789732905  2.6746767209  0.0707308901
C   -3.0461001872  1.4295963953  0.6833122435
C    3.3255597660 -0.0240383758  0.6229215901
C    3.8579906551  1.2138335040  0.2583920384
H    3.9319216027  3.3671688104 -2.3465555393
H    3.3657811337  4.0080626192 -0.7840673262
H    4.9986336296  3.3145647634 -0.9436384377
H    2.0146287798  1.7947554517 -2.5529542076
H    1.0730996275 -0.3995377596 -1.9160311624
H   -0.4931330846  0.2293554731  1.0420832045
H    0.3584235848 -0.7101030778  2.2764681647
H   -1.9989019097 -0.8743170803  3.0338473836
H   -0.5102336505 -3.0016220145  2.8098963610
H   -2.1820811889 -3.4694362337  2.4148258489
H   -0.5027037935 -3.8973823430  0.4053415026
H   -2.0121791672 -2.4003077439 -1.1932243156
H   -2.8672865005 -3.5619937930 -0.1602025805
H   -2.6110355244 -0.5513116756 -2.0488985616
H   -2.3024038106  1.6303053767 -3.1042577991
H   -2.4727394687  3.7144424381 -1.7700755110
H   -2.9747412712  3.5848757379  0.6567522822
H   -3.2791129083  1.4042946957  1.7461090419
H    3.6912670244 -0.5270067611  1.5150396885
H    4.6327619428  1.6623310386  0.8771290042
