43
SIG-NIHDA-401 | MMFF94/ETKDGv3 ensemble | attach_idx=14 axis_idx=10 relative_energy_kcal_mol=0.70717767 boltzmann_weight=0.0796390725
C   -6.1759754713 -0.5006519948 -0.7495599280
C   -4.8011454995  0.0690505800 -0.5536799998
C   -3.9660637762  0.2949311806 -1.6562307770
C   -2.7011629922  0.8589592375 -1.4821099273
C   -2.2645598305  1.1917430342 -0.1972075219
S   -0.6623717660  1.9347956068  0.0269768591
O   -0.7196218688  2.7328113373  1.2340512262
O   -0.2695818140  2.5181995570 -1.2381879935
N    0.3498692224  0.6310227735  0.3286553889
C    0.6734226807 -0.3321324499 -0.7624510141
C    0.9360125246 -1.6459332309  0.0026467904
C   -0.1807092177 -1.5610638427  1.0527928911
C    0.1970354643 -0.1693162798  1.5790480875
C    1.5961578857 -0.3262905424  2.2236795778
P    2.4809656837 -1.5733067280  1.1271094496
C    3.6700232200 -0.6740001886  0.0949975918
C    4.5055920388 -1.4391296462 -0.7376290010
C    5.4543306964 -0.8343821701 -1.5673116676
C    5.5863580677  0.5498507472 -1.5780026560
C    4.7723001569  1.3247267437 -0.7576939177
C    3.8256780013  0.7170359299  0.0746568685
C   -3.1046507232  1.0123985033  0.9050237367
C   -4.3685037566  0.4480505754  0.7242774050
H   -6.8941877630  0.3065516086 -0.9229965667
H   -6.4903563125 -1.0722603648  0.1299984469
H   -6.1968915700 -1.1839562692 -1.6050413783
H   -4.3021498748  0.0416715133 -2.6599716621
H   -2.0703747096  1.0425193986 -2.3492857990
H    1.5177086931  0.0148233607 -1.3598737982
H   -0.1836652573 -0.4680500316 -1.4287339700
H    0.9198051197 -2.5392139101 -0.6246646413
H   -0.1440184939 -2.3394752006  1.8233420144
H   -1.1735660195 -1.5761420224  0.5892335668
H   -0.5270441889  0.2483172233  2.2809778381
H    1.4909650458 -0.7879609960  3.2118414452
H    2.1173482813  0.6239701452  2.3490827945
H    4.4309729777 -2.5251971472 -0.7461946729
H    6.0898491256 -1.4470782617 -2.2009711557
H    6.3212889211  1.0246993867 -2.2221380767
H    4.8668468995  2.4078773267 -0.7640983220
H    3.2051843857  1.3678946899  0.6827143666
H   -2.7906175749  1.3182331178  1.9003897585
H   -5.0204966118  0.3154077000  1.5855951755
