43
SIG-NIHDA-401 | MMFF94/ETKDGv3 ensemble | attach_idx=14 axis_idx=10 relative_energy_kcal_mol=0.77912433 boltzmann_weight=0.0705324422
C    6.1834449693  0.6484882904 -0.0928472854
C    4.8067309934  0.1971843711 -0.4853209024
C    4.3393627484 -1.0660855096 -0.0983282458
C    3.0504141852 -1.4787675604 -0.4400284512
C    2.2128507373 -0.6122601615 -1.1474963981
S    0.5771637483 -1.1452125243 -1.6055387284
O    0.5895395380 -2.5926138149 -1.6502296586
O    0.1679383587 -0.3641615001 -2.7534816832
N   -0.3778716158 -0.6864448643 -0.3044889008
C   -0.6505662432  0.7568323799 -0.0490974076
C   -0.8613990047  0.8037836568  1.4785728779
C    0.2423140733 -0.1670794381  1.9217222734
C   -0.2000770915 -1.3342718637  1.0281118721
C   -1.5960264848 -1.7585976960  1.5467895289
P   -2.4167721174 -0.1448935711  2.0593413391
C   -3.6359699013  0.2959996549  0.7916525589
C   -3.8520971693 -0.4124005320 -0.3962380705
C   -4.8178813524  0.0045338024 -1.3190679925
C   -5.5909187697  1.1331567569 -1.0648016894
C   -5.3986261295  1.8468853271  0.1130188607
C   -4.4308320489  1.4306167561  1.0318732897
C    2.6720203240  0.6436914813 -1.5526343214
C    3.9619354537  1.0506311787 -1.2078102261
H    6.1488233484  1.1513457350  0.8784493989
H    6.8696880390 -0.2023657767 -0.0272428945
H    6.5945065808  1.3401839931 -0.8356614632
H    4.9838667169 -1.7414793318  0.4611233915
H    2.7127228774 -2.4734135320 -0.1580786542
H   -1.5045434512  1.1077443920 -0.6302062302
H    0.2167834170  1.3695337584 -0.3122644613
H   -0.8011987914  1.8059143187  1.9073412748
H    0.2337076645 -0.4126079027  2.9897372611
H    1.2384746818  0.2056424062  1.6578361420
H    0.4994536778 -2.1720853661  1.0183734477
H   -2.1592591840 -2.3487290395  0.8223080162
H   -1.4785092139 -2.3597952333  2.4553145546
H   -3.2653776709 -1.2896592171 -0.6502933086
H   -4.9596102549 -0.5558821338 -2.2399616113
H   -6.3408785303  1.4534764541 -1.7827656456
H   -6.0018440731  2.7263177645  0.3216646379
H   -4.3087790268  2.0058821590  1.9480365417
H    2.0371997814  1.3066558366 -2.1366162095
H    4.3100962102  2.0343060957 -1.5172079254
