43
SIG-NIHDA-401 | MMFF94/ETKDGv3 ensemble | attach_idx=14 axis_idx=10 relative_energy_kcal_mol=0.77912433 boltzmann_weight=0.0705324430
C   -6.0713156058  0.9407479655  0.8154401366
C   -4.7968396796  0.2623103207  0.4049701727
C   -4.3900290824  0.2730203477 -0.9360880357
C   -3.1927466111 -0.3350937264 -1.3170951398
C   -2.3824914635 -0.9320521577 -0.3475664733
S   -0.8669686429 -1.7294105956 -0.8341069112
O   -1.0039556930 -2.1088355099 -2.2249310515
O   -0.5426861186 -2.7092189498  0.1808287312
N    0.2788031911 -0.5063409583 -0.7528866383
C    0.6993416862  0.0378388977  0.5698572164
C    1.1040302621  1.4883332932  0.2341105933
C   -0.0112138228  1.8444547343 -0.7591402060
C    0.2175410920  0.6493526873 -1.6950836375
C    1.6280016701  0.8509083775 -2.3014910240
P    2.6367631206  1.6044613294 -0.9033029176
C    3.7187241488  0.3149942926 -0.2291369044
C    4.6281721928  0.6983249619  0.7722762245
C    5.5034978540 -0.2256571595  1.3504278947
C    5.4865347892 -1.5526716001  0.9352288629
C    4.5973872847 -1.9512111775 -0.0580535897
C    3.7244933331 -1.0238461047 -0.6379144384
C   -2.7840841206 -0.9630895957  0.9903978758
C   -3.9824001358 -0.3531742646  1.3651316668
H   -5.8733783387  1.9876086454  1.0652103032
H   -6.5143284556  0.4462015600  1.6862731496
H   -6.8115061241  0.9025027444  0.0093128137
H   -5.0123329833  0.7448469374 -1.6941416781
H   -2.9052561438 -0.3442441182 -2.3659595563
H    1.4992971178 -0.5603842866  1.0083824396
H   -0.1408519740  0.0510159485  1.2704683058
H    1.1809901728  2.1434720285  1.1039402047
H    0.1115914683  2.8131801355 -1.2566379739
H   -0.9985943889  1.8191567211 -0.2844476336
H   -0.5442076345  0.5435438787 -2.4696244839
H    1.5767624732  1.6010169447 -3.0985987838
H    2.0450152086 -0.0638339791 -2.7254107451
H    4.6702277261  1.7313265876  1.1133371926
H    6.1985062590  0.0948853840  2.1218045845
H    6.1639077789 -2.2749100380  1.3825028606
H    4.5754073977 -2.9880870170 -0.3845564123
H    3.0402559081 -1.3899019975 -1.3969851476
H   -2.1754654462 -1.4600415842  1.7428448449
H   -4.2845996701 -0.3714999034  2.4105502703
