55
-87.05708822
N    2.558669688200  0.104018557100  0.207655909100
C    3.888715701700  0.296918982300 -0.171622222800
C    4.950169424100 -0.167244539000  0.613407476700
C    6.250304393600  0.039665809500  0.172844402400
C    6.517541501100  0.697315720200 -1.014005342500
C    5.464327391200  1.155972278700 -1.788393042600
C    4.164433305400  0.948180172900 -1.373146375100
C    4.706979451500 -0.883206366200  1.915942848800
C    3.279615277100 -0.667053437700  2.404871043800
C    2.328027536900 -0.893828811200  1.235400515200
P    1.441527043600  1.281122306300 -0.304701419100
O    0.416732091000  1.116950588500  0.984301089300
C   -0.880883400700  1.551827270100  0.781948742300
C   -1.265214001600  2.797106965200  1.303306344300
C   -2.546435091700  3.237831025300  1.137669582500
C   -3.478117660400  2.479969229400  0.396897257400
C   -4.787100253600  2.951092914900  0.160553987000
C   -5.664568828500  2.232867080500 -0.602136813800
C   -5.263331879600  1.016264369200 -1.174520447200
C   -4.007160092500  0.524132397400 -0.952058937300
C   -3.086661912700  1.225426103000 -0.143252545400
C   -1.772242959000  0.743023945300  0.108060747500
C   -1.312419392700 -0.580582128200 -0.360706929800
C   -1.983911656500 -1.782422307700 -0.000947393500
C   -3.065180379700 -1.801155440400  0.907160344400
C   -3.690777602000 -2.973134278500  1.231139919700
C   -3.268411343900 -4.186977912200  0.668410483600
C   -2.203727384400 -4.207691760200 -0.188095106100
C   -1.526968048800 -3.018418543500 -0.532088197500
C   -0.396054707600 -3.033220753500 -1.375812056900
C    0.282346955500 -1.881772574000 -1.650195676900
C   -0.171423444900 -0.655125981400 -1.134917215000
O    0.541607052500  0.479579415600 -1.453429607800
H    7.067434777600 -0.320152462000  0.782768510700
H    7.537581872300  0.847926080000 -1.334369149900
H    5.654147242000  1.664872480800 -2.722005163700
H    3.334919233000  1.275035385100 -1.985455453700
H    5.424294795000 -0.535665098300  2.662784979500
H    4.883889939900 -1.954222504300  1.769293498700
H    3.155635407900  0.356488853600  2.765359295400
H    3.042983308400 -1.352400596000  3.219759803300
H    1.289421364100 -0.835876169700  1.560420195600
H    2.499073114100 -1.889549841100  0.806289263500
H   -0.526725277700  3.378646047900  1.834444891300
H   -2.854975360300  4.187091529500  1.550026853800
H   -5.077394661700  3.900129189300  0.588075739800
H   -6.664037206000  2.601523791100 -0.780510321600
H   -5.954539822100  0.469197562600 -1.798841760800
H   -3.702965326100 -0.406905346200 -1.405658225500
H   -3.390433364600 -0.874221161500  1.354535597300
H   -4.515410387400 -2.969348311200  1.928924781400
H   -3.781082484400 -5.101741335500  0.927457794100
H   -1.854598536100 -5.138955294400 -0.610941723700
H   -0.059217437200 -3.975613847500 -1.782418559900
H    1.169829899000 -1.876303831200 -2.265716385000
