55
-87.04803351
N    2.585731674900  0.179824359500 -0.904240053600
C    3.433000957300  0.453474041500  0.177273980100
C    4.126993267100 -0.649900449400  0.684790477900
C    5.005823280400 -0.475635310300  1.737411175200
C    5.184856823300  0.780758226200  2.297045267100
C    4.488044350200  1.867701822700  1.797084811100
C    3.620657029500  1.710149475400  0.729320333500
C    3.815546626900 -1.962659094800  0.035434362500
C    3.903561973100 -1.835551245500 -1.492874661900
C    3.292062000800 -0.509181532000 -1.982115606000
P    1.373069452900  1.299010204700 -1.378746954700
O    0.735974429400  1.386938692500  0.145439373700
C   -0.592670951500  1.757601239500  0.210206170600
C   -0.919136596300  3.072062432100  0.579804605100
C   -2.228015388700  3.451944869200  0.660409518800
C   -3.260948852600  2.552600830100  0.321705656500
C   -4.615340092400  2.948612691800  0.335960880700
C   -5.603521889300  2.083650860600 -0.041689659100
C   -5.276166092400  0.786270374400 -0.464431286500
C   -3.975159753900  0.366078157400 -0.475043803500
C   -2.932661001600  1.224362683500 -0.062162952000
C   -1.568720630200  0.821926298400 -0.062581248300
C   -1.156515642700 -0.562443518600 -0.376262328100
C   -1.652155478100 -1.670429002700  0.366834278500
C   -2.459042053100 -1.508754769200  1.514488452900
C   -2.921075421000 -2.593306329000  2.207252018300
C   -2.601488214100 -3.895000824100  1.792121758500
C   -1.797820706400 -4.085669481700  0.703627201800
C   -1.292751731400 -2.987709784600 -0.024757780100
C   -0.430739654900 -3.167972302400 -1.126197798600
C    0.098229045600 -2.092294534500 -1.778374662600
C   -0.248729092400 -0.787374982900 -1.391051861600
O    0.305726637100  0.267683705000 -2.094938164100
H    5.545704499500 -1.326134945400  2.129561944500
H    5.869407034000  0.910945632500  3.122399491700
H    4.630597349200  2.847502379600  2.229865420300
H    3.091284564500  2.556324223700  0.313154773300
H    2.788720649900 -2.234074331300  0.301381208700
H    4.482046027700 -2.749632724000  0.389275806400
H    3.392360480900 -2.684173133400 -1.948520985200
H    4.951141625500 -1.874573380300 -1.795281741700
H    2.577860569000 -0.675441501200 -2.791143405000
H    4.090028215800  0.136779719000 -2.374718277400
H   -0.114417421900  3.757241129100  0.800391489300
H   -2.487383426900  4.456811422100  0.959543274200
H   -4.853304565000  3.957072346300  0.642807428600
H   -6.637697147400  2.395131415100 -0.030236743400
H   -6.061697821400  0.118670116100 -0.787094838800
H   -3.731236340400 -0.629902685800 -0.812176009900
H   -2.700075852400 -0.511536870800  1.850022038200
H   -3.534473260100 -2.451207147400  3.085057625400
H   -2.983994759000 -4.739972201500  2.345746272200
H   -1.526931832800 -5.082601769100  0.386301230600
H   -0.175164020900 -4.171852203200 -1.432447103700
H    0.776376931000 -2.217398782300 -2.608420826600
