55
-87.04953123
N    2.858444138000  1.313612203600  0.245814533100
C    3.142814654300 -0.043618624600  0.410287018800
C    4.392129872400 -0.572899047600  0.049243580500
C    4.626494010700 -1.931003458900  0.187219747300
C    3.655706385300 -2.786064309400  0.678565865700
C    2.443218750500 -2.258986548700  1.085047157500
C    2.195866309600 -0.905331488600  0.963825731500
C    5.480213766300  0.351609751700 -0.415359352900
C    5.311703931800  1.675579016900  0.321322295300
C    3.953929573400  2.248832660800 -0.042709956000
P    1.378549267000  2.019582668500 -0.228823076800
O    0.457238887800  1.550216846600  1.064628324600
C   -0.902587983900  1.742981172300  0.892531858300
C   -1.505828879200  2.850519109300  1.510016464900
C   -2.846177525100  3.063165884200  1.369623736700
C   -3.625787644500  2.215953296900  0.553290981100
C   -4.997927666500  2.464407265100  0.338123890700
C   -5.732001483500  1.672400446200 -0.499385002400
C   -5.117149601400  0.605363837000 -1.171037550500
C   -3.793198725000  0.327517680200 -0.970654320500
C   -3.014332344100  1.104056118700 -0.085541189600
C   -1.632769609700  0.842320695000  0.145109344600
C   -0.966948248400 -0.348167705600 -0.420958995400
C   -1.467056250400 -1.659635168100 -0.172277288500
C   -2.508021946400 -1.905397320500  0.749212409500
C   -2.962509529600 -3.175349896200  0.976138239800
C   -2.402511205000 -4.265943232000  0.295002435800
C   -1.372909224200 -4.065415611900 -0.581425120100
C   -0.869285688100 -2.770562749800 -0.823900127200
C    0.228851667700 -2.558074402500 -1.684274619000
C    0.758012049900 -1.311727339200 -1.834571412200
C    0.178059008500 -0.209768258300 -1.180047353900
O    0.769558567800  1.015139671600 -1.390721227100
H    5.593161585000 -2.322086440200 -0.099482014600
H    3.852777071400 -3.844135054100  0.765724596700
H    1.681976901500 -2.899083221900  1.507396807800
H    1.259535393900 -0.512702472900  1.319856690400
H    5.405589936200  0.520236602100 -1.494484447500
H    6.457437423500 -0.089828568300 -0.212380460500
H    6.088519082600  2.387695649000  0.040932012800
H    5.368309313200  1.502577303700  1.398067007200
H    3.953121721800  2.509354257700 -1.108799897300
H    3.757839060700  3.165194216900  0.523264400900
H   -0.881908905600  3.509061768000  2.095302419100
H   -3.321286278200  3.900741206900  1.858435302300
H   -5.453806232400  3.304147970600  0.842763524300
H   -6.781483174300  1.870291000100 -0.660672471300
H   -5.696736650300  0.003129872100 -1.855277331200
H   -3.327122556400 -0.487768713700 -1.502518628500
H   -2.937864503900 -1.075794533300  1.289839985900
H   -3.755814961300 -3.344366107700  1.689646490400
H   -2.780090937600 -5.261121323100  0.478945573000
H   -0.915685305500 -4.898970159200 -1.095283451900
H    0.666935428000 -3.402778660400 -2.194860921700
H    1.627342763100 -1.134758634700 -2.449731799700
