55
-87.05612497
N    2.553950241100  0.237602779400  0.330912950300
C    3.870241812300  0.370025055200 -0.102495071200
C    4.941503069500 -0.212416217500  0.587986233500
C    6.231632834000 -0.039965713300  0.111849950000
C    6.487998703300  0.696171877000 -1.031347768500
C    5.426819030000  1.241727693500 -1.734342418300
C    4.134304650800  1.068407234600 -1.281225634200
C    4.669831771700 -1.054087195200  1.802213836400
C    3.303673782100 -1.708855404700  1.636338781000
C    2.255360055600 -0.620043429900  1.472543145800
P    1.421699517600  1.377816874000 -0.250813374600
O    0.383346255300  1.211158517900  1.024864358600
C   -0.918453628700  1.617504952900  0.787301037100
C   -1.340128739900  2.864082276900  1.275505338700
C   -2.626142722900  3.274855615600  1.072814165200
C   -3.524901522900  2.484583694600  0.325276169400
C   -4.837266655900  2.923827729200  0.049514110300
C   -5.681222155200  2.173706956900 -0.720276438900
C   -5.241857583700  0.955403620100 -1.260143143400
C   -3.981885377200  0.493353865000 -0.998373724500
C   -3.095581125400  1.228582791800 -0.181590222900
C   -1.778039388000  0.778311564200  0.109406599800
C   -1.284663007700 -0.546392825800 -0.320546158500
C   -1.942206701000 -1.751067067600  0.055208807400
C   -3.038749483100 -1.766852901700  0.944874432100
C   -3.648421442800 -2.941701135400  1.288007650500
C   -3.194879863800 -4.161221773400  0.763035518400
C   -2.115892626800 -4.183800314400 -0.075308676900
C   -1.454494640200 -2.991311790400 -0.437580996000
C   -0.309027297900 -3.006260680000 -1.261616384300
C    0.355193184100 -1.850069864200 -1.550615870300
C   -0.126268675600 -0.620087382400 -1.068911896200
O    0.577253646200  0.518272759600 -1.397071282500
H    7.049778625800 -0.493837029600  0.653864965000
H    7.501258627700  0.825945431400 -1.380643312300
H    5.602883036900  1.794664550900 -2.645478843300
H    3.304084873400  1.466846520000 -1.848210103300
H    4.671936786000 -0.430217664900  2.701742402600
H    5.451904609800 -1.806763677800  1.917582465000
H    3.050036611100 -2.318521999300  2.504526086100
H    3.311417053600 -2.350275499000  0.752464717700
H    2.205444688300 -0.019771251300  2.390023240700
H    1.270862123000 -1.069743169200  1.313437791400
H   -0.626333435200  3.470986332500  1.811996843900
H   -2.963343805600  4.224854166300  1.460274176600
H   -5.157179822900  3.874186707200  0.452187460300
H   -6.683369382500  2.518226548700 -0.929268218500
H   -5.906435050000  0.383055300800 -1.890671186700
H   -3.647920194100 -0.439431562700 -1.426789473800
H   -3.387581270700 -0.835159092000  1.363575604400
H   -4.484341619400 -2.935653205100  1.972193286900
H   -3.695332171200 -5.078512360200  1.036540900300
H   -1.743366289500 -5.118673844500 -0.469174149700
H    0.050258527800 -3.951777526300 -1.640663339600
H    1.253125102500 -1.843256439700 -2.150634104600
