55
-87.05475601
N    2.861187605700  1.308067148400  0.470454430800
C    2.948480411200 -0.092201524800  0.573693245400
C    3.955229035800 -0.798174766000 -0.096264247800
C    4.001873897500 -2.180377455900  0.028171559200
C    3.081674847900 -2.869601634400  0.795362985400
C    2.105573299700 -2.165452626000  1.479411856500
C    2.048290213700 -0.789957743200  1.377537737800
C    5.004943672400 -0.101709957100 -0.924043645900
C    4.660587960800  1.361970431000 -1.180248905800
C    4.109651515800  1.957898536500  0.110094765300
P    1.491210982700  2.131818822200 -0.120083424000
O    0.481230592700  1.718181912600  1.121759859200
C   -0.871862233300  1.868081510000  0.890586433400
C   -1.530288444400  2.976946296500  1.446881225100
C   -2.871995312200  3.138355230200  1.257899250000
C   -3.599003934400  2.232222913600  0.456573271100
C   -4.972643666300  2.421967210600  0.195850082100
C   -5.655777824700  1.569576249800 -0.625287333600
C   -4.986584090900  0.497436345700 -1.234130492800
C   -3.659600430300  0.276249293000 -0.988808405600
C   -2.931998137800  1.117819513300 -0.119552029100
C   -1.549826466000  0.916130860300  0.157986738800
C   -0.819386766500 -0.261770172300 -0.351688845100
C   -1.259056907600 -1.587331588800 -0.073878615000
C   -2.308410341600 -1.857002941400  0.831100624500
C   -2.700375505400 -3.141144709500  1.091549323500
C   -2.067089938900 -4.222049341500  0.460718218600
C   -1.030198447800 -3.996031128600 -0.400690511700
C   -0.590096895400 -2.685015739300 -0.676632958600
C    0.509481259600 -2.441499646900 -1.526421761600
C    0.975154459500 -1.174276317600 -1.708875623300
C    0.331711971400 -0.086147405000 -1.092748179000
O    0.864355887700  1.164141564400 -1.314651155000
H    4.777315921100 -2.721706668500 -0.496569913900
H    3.131966202200 -3.945782823500  0.869078017700
H    1.390941435800 -2.684912636400  2.101009505100
H    1.304757783700 -0.242039665100  1.932278372700
H    5.138189594100 -0.634053394400 -1.868953158200
H    5.957167854700 -0.160072851500 -0.385450578400
H    3.889900798300  1.444021153700 -1.951070654700
H    5.542057065500  1.910738105000 -1.513971583000
H    3.911565329400  3.026506830900 -0.003140234400
H    4.825722323800  1.816906750700  0.927329507000
H   -0.947312609000  3.678512842300  2.024562153300
H   -3.388925038100  3.978521435300  1.697514964200
H   -5.471068691800  3.265354503300  0.651960641900
H   -6.706706296500  1.722880941300 -0.821950588400
H   -5.526747436600 -0.154212997300 -1.905290168400
H   -3.151208718800 -0.544258772200 -1.471781382100
H   -2.793557872800 -1.033174851300  1.332528472500
H   -3.500810409100 -3.329113229000  1.792310549300
H   -2.396229211900 -5.229315190800  0.670255735100
H   -0.518931700200 -4.820533322300 -0.876782821400
H    0.997380812900 -3.277036036100 -2.005750449000
H    1.841028238100 -0.972126679400 -2.320676824000
