55
-87.04869233
N    2.843714796400  0.836907397000 -0.754111780500
C    3.207268646200 -0.008350516600  0.294711634200
C    4.510844960400  0.004994375900  0.813984380600
C    4.839106917200 -0.837547578200  1.862728072700
C    3.905578846200 -1.695546414800  2.417886467800
C    2.631523372200 -1.739973434300  1.880175207900
C    2.291937849200 -0.916858893900  0.824004709600
C    5.544806630200  0.877687193100  0.164623588500
C    5.262277210000  0.880343501700 -1.334353599800
C    3.888549970000  1.487937849500 -1.556991840800
P    1.374349444700  1.677328726700 -0.992539762700
O    0.700069255900  1.386449857700  0.480195258500
C   -0.653146432200  1.679163042300  0.551361874700
C   -1.048450410900  2.872482735000  1.176613871900
C   -2.372992562300  3.187503633200  1.270501717900
C   -3.352384998300  2.355339722600  0.687633846200
C   -4.719822457400  2.702612244100  0.709526936700
C   -5.653362309500  1.917163172000  0.093761219900
C   -5.254623045400  0.755063375400 -0.583568364300
C   -3.939528877000  0.381129777300 -0.608050692600
C   -2.953797875000  1.153170899800  0.044207845500
C   -1.575789263100  0.794455019000  0.033739779000
C   -1.112529056600 -0.486300311700 -0.538754709000
C   -1.620083396000 -1.732014402900 -0.069911060400
C   -2.483712457200 -1.822717800600  1.043493884500
C   -2.947681871600 -3.033911789100  1.476699591900
C   -2.574193089400 -4.217216085700  0.822246784900
C   -1.714677909100 -4.166843632000 -0.238996982300
C   -1.204555752000 -2.935158904800 -0.700443802800
C   -0.273589371200 -2.875215559200 -1.759253256400
C    0.268815923300 -1.683361411200 -2.140022661900
C   -0.136389397900 -0.488934535600 -1.516530440600
O    0.452443079700  0.678055683300 -1.944157089900
H    5.848155432500 -0.815616411800  2.251207276100
H    4.176212405800 -2.335640771500  3.244540587300
H    1.894508712600 -2.426456987700  2.272606899900
H    1.305182589700 -0.990921173800  0.399329325500
H    6.545528016100  0.497937919600  0.376446665600
H    5.481942206100  1.899856630800  0.550800587400
H    5.285611143200 -0.145589479200 -1.708130713000
H    6.004044746200  1.465633547600 -1.878938151400
H    3.596478272000  1.400035517800 -2.609972933700
H    3.929024130300  2.556951602000 -1.314358747700
H   -0.279927607000  3.514650104700  1.579734048500
H   -2.685325073400  4.093914925200  1.767535168900
H   -5.011590387200  3.612000545300  1.214994219000
H   -6.697863630400  2.191514108300  0.111886028200
H   -5.995341708500  0.155711702500 -1.092365094200
H   -3.641041349600 -0.508522644900 -1.141417205900
H   -2.766144503000 -0.920122556200  1.563673298000
H   -3.603724085100 -3.084576306300  2.333444261700
H   -2.958310642500 -5.164245925500  1.171988262700
H   -1.400045515000 -5.072691025100 -0.737317677800
H    0.027269053000 -3.792110918000 -2.244275831800
H    1.015318436300 -1.620333798200 -2.917445100600
