55
-87.05096307
N    2.773789139800 -0.052767721000 -0.526167511300
C    3.821746520400  0.644733377400  0.068116677400
C    4.965729713200 -0.019058751600  0.534394591500
C    5.970848929400  0.715679012500  1.146514516100
C    5.874506208200  2.085374969900  1.311234908700
C    4.739362363000  2.738896839700  0.861764108000
C    3.728276108100  2.023890376400  0.253253384800
C    5.120675759000 -1.510215561400  0.391264397700
C    3.773222868400 -2.166755275600  0.121694218000
C    3.077348235500 -1.393520528100 -0.991409309700
P    1.441622597900  0.869165043700 -1.105812515400
O    0.715794026300  0.950310893300  0.385150323300
C   -0.564319934500  1.465899087400  0.355451530600
C   -0.771329681900  2.802747168600  0.731017537700
C   -2.028708372500  3.331945238100  0.695803539200
C   -3.116512319100  2.568679762700  0.220402822700
C   -4.408059976400  3.125465829300  0.107035949100
C   -5.444076581500  2.397372140000 -0.406703305200
C   -5.225441433600  1.083224153000 -0.846178861000
C   -3.989772104100  0.508430538400 -0.733712086600
C   -2.906350547600  1.219727473000 -0.173700439300
C   -1.605667847800  0.654141848400 -0.040528014900
C   -1.348735757300 -0.770221352900 -0.334514126800
C   -2.117564199600 -1.784492612400  0.310987922600
C   -2.990899154100 -1.495588271200  1.382274440900
C   -3.717534648200 -2.485122614600  1.985122956600
C   -3.612541538700 -3.814590208300  1.550505215500
C   -2.752176104600 -4.133443092900  0.537770401000
C   -1.975834561500 -3.138188043700 -0.091980222800
C   -1.058500256900 -3.456248039300 -1.114927146100
C   -0.256897578600 -2.491076506000 -1.648730149800
C   -0.368016864000 -1.151389938000 -1.228430487800
O    0.488083263100 -0.249649779600 -1.834281011100
H    6.848111030700  0.193502254300  1.503324603700
H    6.671038934700  2.635185158500  1.789759590100
H    4.640085605000  3.807752484700  0.984249205700
H    2.845876190600  2.537835997300 -0.101772078500
H    5.572915670300 -1.919672974300  1.297280386700
H    5.804287634000 -1.721939705700 -0.438107639400
H    3.152187845600 -2.131576085400  1.019229277500
H    3.901294671000 -3.209531672600 -0.172112813300
H    2.147718231300 -1.885818919500 -1.267643895200
H    3.730226373800 -1.356902959900 -1.875575398900
H    0.082005697000  3.381419996600  1.051430158500
H   -2.201162662400  4.352705774500  1.003398066200
H   -4.557060971000  4.147340846100  0.425236710100
H   -6.429448393800  2.831308163900 -0.492117035300
H   -6.042022966100  0.525322270200 -1.280621281300
H   -3.830334367900 -0.498589780600 -1.087580763400
H   -3.069218758600 -0.479418935000  1.737319801800
H   -4.375541662600 -2.245115189000  2.807465829000
H   -4.202976455800 -4.581213868300  2.030344901400
H   -2.642516660000 -5.156779768800  0.208423564100
H   -0.982050037200 -4.478472965400 -1.454561821700
H    0.459467807000 -2.725362484600 -2.422727931600
