55
-87.05144557
N    2.689004934400  0.105459783500 -0.809336243100
C    3.628283355300  0.539383302400  0.124306569700
C    4.630306111000 -0.337828978600  0.560825437700
C    5.531185399300  0.099770069800  1.521542146800
C    5.465868395100  1.376284600300  2.050100109800
C    4.488069087500  2.247344209900  1.599183775900
C    3.585409503000  1.831517525800  0.641374015600
C    4.774718689800 -1.728418952000 -0.005175828900
C    3.594064277600 -2.118669020600 -0.890484076900
C    3.194642183700 -0.904326577200 -1.721235860500
P    1.385584092900  1.122048986500 -1.284511401300
O    0.728791726000  1.173731528700  0.235327506200
C   -0.577685202800  1.622289501800  0.263988769100
C   -0.840905883800  2.951897869200  0.628926705300
C   -2.127743918800  3.406833551700  0.657947833100
C   -3.195469365500  2.571883515300  0.265648422600
C   -4.523065396300  3.048279567900  0.222508236400
C   -5.542591963600  2.247291524000 -0.209142494600
C   -5.273643768500  0.936474398300 -0.631275497600
C   -4.000951119200  0.438760463600 -0.586183449100
C   -2.929714346300  1.228915137500 -0.115361876000
C   -1.592578043300  0.746301098500 -0.057304144700
C   -1.251136848100 -0.660039794800 -0.353614833800
C   -1.869944519000 -1.726047208900  0.360937030700
C   -2.710648383200 -1.499094303700  1.472723605500
C   -3.292415321500 -2.541903558500  2.139131113700
C   -3.066441114000 -3.865300060000  1.731784408300
C   -2.233516393200 -4.121265240200  0.679245676400
C   -1.605397897200 -3.068332496400 -0.018960347000
C   -0.713416290500 -3.317225904500 -1.082131505400
C   -0.060690154800 -2.288888532300 -1.696646365800
C   -0.305232928600 -0.957940833100 -1.314267642600
O    0.375002772600  0.036830388300 -1.997177751200
H    6.300539299500 -0.581355182800  1.858912358200
H    6.176735965400  1.692095394700  2.799178577000
H    4.434809678100  3.255054484500  1.985350132000
H    2.839507433900  2.516135298200  0.263300105900
H    4.887610930200 -2.444585535600  0.812167365200
H    5.698299120100 -1.763078694600 -0.593434169500
H    2.741733340200 -2.413944460000 -0.275209479900
H    3.861263168000 -2.955429046000 -1.537454738700
H    2.416472740200 -1.145341985400 -2.444838290700
H    4.069374524400 -0.528191358700 -2.270324220500
H   -0.007501246100  3.587320039400  0.888385380300
H   -2.341142390300  4.423042253200  0.954904296800
H   -4.714305591700  4.066857254200  0.528512439100
H   -6.555757669600  2.620203763800 -0.241544514800
H   -6.081433708000  0.320190214800 -0.997988322500
H   -3.801785212100 -0.566908998400 -0.923760589100
H   -2.880733127500 -0.486324662400  1.804780253600
H   -3.928635502300 -2.349389504700  2.990646798800
H   -3.542970096000 -4.675722658300  2.263594778600
H   -2.032616145700 -5.136744034600  0.368980802500
H   -0.534606663400 -4.336932758000 -1.389836241900
H    0.638602866700 -2.475419708200 -2.497142311400
