55
-87.05594113
N    2.620225653000  0.222303482400  0.189482027300
C    3.958910096300  0.490137691200 -0.090505989300
C    4.997413396900 -0.160084786200  0.590635837700
C    6.313408069000  0.154066998400  0.286012464400
C    6.630172977600  1.092494781900 -0.678883610300
C    5.605728662300  1.706218297400 -1.380162494400
C    4.290493988900  1.399447854100 -1.095559758000
C    4.686450367500 -1.220332542000  1.609799359700
C    3.355078076900 -1.868079174500  1.252995231200
C    2.293006879500 -0.782469105000  1.194082805500
P    1.415725824100  1.269895751700 -0.404208152300
O    0.433037351600  1.133637940900  0.921467779400
C   -0.865340203100  1.568307687300  0.716919558400
C   -1.233815028800  2.842396179800  1.176702675900
C   -2.512058020500  3.286683593400  0.999485589100
C   -3.455865721500  2.502451095200  0.302474976000
C   -4.760934601700  2.975740701200  0.049831765700
C   -5.649699512500  2.231588317400 -0.673988981800
C   -5.263541059700  0.985428322400 -1.189985342300
C   -4.011717172000  0.490769857100 -0.948943035100
C   -3.080336767900  1.218966198300 -0.177356719600
C   -1.768777906700  0.735184034500  0.090929603400
C   -1.335243404600 -0.618208161400 -0.310989393700
C   -2.038442823500 -1.781630026500  0.113576907200
C   -3.102302108500 -1.722870687900  1.040198440800
C   -3.757041565700 -2.857625408700  1.432311021600
C   -3.384046268500 -4.109735471000  0.921436222000
C   -2.337901502700 -4.204935329800  0.047168274800
C   -1.631448830400 -3.055610497100 -0.365146331400
C   -0.518040881100 -3.146289780200 -1.227821270200
C    0.197073178500 -2.032952754400 -1.557525354200
C   -0.198871621900 -0.768663267300 -1.082351682100
O    0.561512994000  0.314375958500 -1.461382618200
H    7.103495606700 -0.353570080500  0.821910678600
H    7.661373067700  1.328401159400 -0.894267562200
H    5.829125275600  2.421523347300 -2.158139414600
H    3.496347931200  1.863411719600 -1.662357118000
H    4.623021678800 -0.774663806500  2.607715287200
H    5.487470734900 -1.961806048900  1.628928937700
H    3.066486882000 -2.612902558500  1.995767434000
H    3.434582532400 -2.359431671500  0.280919791700
H    2.198438450000 -0.308946155400  2.179940422000
H    1.322723604200 -1.217029701600  0.938102712900
H   -0.485084288700  3.442742232000  1.671337478700
H   -2.808789243700  4.258008335200  1.366582935000
H   -5.038949255200  3.947279385900  0.432609256800
H   -6.646074401300  2.602036892900 -0.865414124600
H   -5.962708475400  0.417118397000 -1.785802156200
H   -3.719885812100 -0.463562163300 -1.360148981300
H   -3.388960421600 -0.766261737500  1.449710594700
H   -4.566082682300 -2.793986178300  2.145269080100
H   -3.918967631500 -4.994382319900  1.234337080100
H   -2.025768727600 -5.165809643100 -0.336444366100
H   -0.223585689500 -4.115517215000 -1.602581893000
H    1.073697722900 -2.084216587800 -2.186047451700
