55
-87.05077281
N    2.843190556500  1.292264204700  0.470771609700
C    2.920348311000 -0.108400008300  0.551306097700
C    3.874156381200 -0.747495611600 -0.248151319100
C    3.982421031600 -2.125372742400 -0.212584862700
C    3.135319785100 -2.872732667800  0.590480844100
C    2.190594546100 -2.237854603700  1.377831263000
C    2.086388151000 -0.857662764700  1.370651325600
C    4.734469982800  0.150063557100 -1.083245942700
C    5.268137495200  1.254068578500 -0.168102949500
C    4.104215657800  2.027196863500  0.470390661600
P    1.491764091400  2.118952046700 -0.113812868900
O    0.469020656200  1.686576850800  1.121001702700
C   -0.880810043700  1.845577995100  0.891149661200
C   -1.536260034900  2.951747516000  1.456870840700
C   -2.876574098700  3.120611859300  1.265978388400
C   -3.605163281800  2.225706087700  0.453355136400
C   -4.977234608200  2.424306040300  0.191299873400
C   -5.662151150500  1.584083173800 -0.640826287800
C   -4.995793284900  0.516301577300 -1.260150570600
C   -3.670279131300  0.286920008700 -1.014234270300
C   -2.941272055700  1.114881025100 -0.133228485700
C   -1.560572858100  0.904821588100  0.145952062700
C   -0.832652387600 -0.268503945900 -0.376663378300
C   -1.284260944800 -1.594830011100 -0.120076855800
C   -2.333109977300 -1.869115181200  0.784069638700
C   -2.737095575800 -3.153438109500  1.024808904400
C   -2.117527236800 -4.229989356200  0.373384557900
C   -1.081643718600 -3.999981304800 -0.488259062100
C   -0.628794403800 -2.689069526800 -0.743082124100
C    0.469417055700 -2.441292954400 -1.593321686800
C    0.949144664000 -1.176220778500 -1.752030723500
C    0.322113362600 -0.091803163600 -1.112153361100
O    0.874381020400  1.153672463800 -1.312544167700
H    4.723097998400 -2.617464700600 -0.827470910800
H    3.216105178200 -3.949630409100  0.605225427500
H    1.533086611600 -2.817446327000  2.009420668400
H    1.362613883000 -0.361310298600  1.997560784500
H    4.129776104100  0.606384596600 -1.874876092000
H    5.552588176000 -0.402596535000 -1.545949556100
H    5.905031805000  1.941009524600 -0.726003878700
H    5.873530216500  0.789079434600  0.612661233600
H    3.924884202800  2.965251617200 -0.062607743500
H    4.360449634600  2.278854733900  1.507599914600
H   -0.952036941300  3.644971054400  2.043372125900
H   -3.391616449500  3.957917911400  1.713326739300
H   -5.473093301000  3.264869285400  0.655443468300
H   -6.711836225500  1.744425444400 -0.838695025000
H   -5.536833799400 -0.125307287600 -1.940251814100
H   -3.164402560400 -0.530140042500 -1.505617951700
H   -2.807977866900 -1.048920007000  1.301117922300
H   -3.536538028100 -3.344898554100  1.725807058600
H   -2.456176831300 -5.237269984500  0.567381407600
H   -0.580564767400 -4.821406250000 -0.980247672700
H    0.944422764100 -3.272081584800 -2.093345755500
H    1.813805183200 -0.972853484700 -2.364887956100
