55
-87.04981107
N    2.710819413300  0.283996393300 -1.007266648100
C    3.039844321000 -0.188509869300  0.277660556900
C    4.167991533500  0.341496533700  0.907623914600
C    4.524408538800 -0.115503772200  2.163454780800
C    3.752174157900 -1.073413751800  2.802282432300
C    2.625348875000 -1.584115296800  2.180268596900
C    2.269428834200 -1.150531672100  0.914572628900
C    4.914569167300  1.383482818100  0.134334104200
C    5.160051111400  0.833214148300 -1.272439785600
C    3.830137485500  0.429970685200 -1.933365375300
P    1.484406670800  1.451177687200 -1.238792220600
O    0.837744548600  1.294040400200  0.269299070300
C   -0.488528741800  1.657391321200  0.409911547300
C   -0.792085788100  2.886425589100  1.016870366000
C   -2.094213928100  3.259063386600  1.187912813300
C   -3.144178607400  2.445661946400  0.711816837500
C   -4.493155530100  2.844590353200  0.823249175100
C   -5.498299347900  2.070434600000  0.315491889500
C   -5.194353178800  0.867448720800 -0.339739647800
C   -3.898784229500  0.444990171400 -0.451556416700
C   -2.838951923700  1.205972623400  0.088150255000
C   -1.480481821400  0.796718790100 -0.011340865200
C   -1.093584019100 -0.509721691900 -0.583893996200
C   -1.579662680300 -1.735208472700 -0.049162499100
C   -2.362766021400 -1.788346095500  1.124702887000
C   -2.808482746300 -2.983009017500  1.618284505600
C   -2.495658994500 -4.185858052100  0.967013424600
C   -1.714223856300 -4.171717537400 -0.153928071600
C   -1.224710525000 -2.957669795900 -0.680615035600
C   -0.372695050600 -2.933003098200 -1.805113567600
C    0.148454594500 -1.755545285000 -2.257204097500
C   -0.202981093300 -0.543489901900 -1.638383073500
O    0.354506551000  0.617489630600 -2.127381290100
H    5.399991041700  0.290259013100  2.650985577900
H    4.029612279800 -1.419151763500  3.787463516000
H    2.020293332600 -2.328440419600  2.677901817300
H    1.397814303600 -1.551620728700  0.419326777700
H    5.855773272000  1.643014471800  0.619748453900
H    4.298637585000  2.287660817000  0.062477430200
H    5.807998850600 -0.041865265900 -1.190005677500
H    5.670456202000  1.575012867200 -1.887500632900
H    3.959109008500 -0.525534526700 -2.457023179000
H    3.526188970000  1.173446818500 -2.678270543600
H    0.026287636700  3.510509238500  1.343427779000
H   -2.335508545600  4.195861703900  1.668156899200
H   -4.713566588400  3.783202157100  1.311291622800
H   -6.528275629200  2.383775238000  0.402915010400
H   -5.993453883800  0.275347782400 -0.761302834600
H   -3.672914878000 -0.476215016200 -0.966902147900
H   -2.597365346400 -0.869257055300  1.639936709500
H   -3.403160322300 -3.005972239800  2.519876466600
H   -2.864834763100 -5.119496581000  1.365561187800
H   -1.447576685800 -5.093096032800 -0.651866090800
H   -0.114681871800 -3.865139049100 -2.286149612800
H    0.831751068300 -1.719552335300 -3.092280383200
