55
-87.05654706
N    2.684712644200  0.279500512100  0.250378468200
C    4.014181160000  0.655345336000  0.061224867900
C    5.057463328500 -0.261724867800  0.240172507200
C    6.365958619600  0.160278186800  0.046706946300
C    6.662684399000  1.459337334900 -0.320701190400
C    5.629125619800  2.365528442500 -0.493574490800
C    4.322792333800  1.966792948800 -0.296708185300
C    4.790728170200 -1.687698597000  0.645574285800
C    3.334504312600 -2.062575764900  0.401820221700
C    2.451629769800 -0.959104725800  0.970826649400
P    1.433706228400  1.173583569300 -0.453743447000
O    0.458237229400  1.122083338400  0.886181174300
C   -0.835604673900  1.556827530900  0.663998838300
C   -1.185773440300  2.859210100400  1.055205954500
C   -2.455731278700  3.314030210600  0.850893805600
C   -3.407810358600  2.511148663200  0.186662432000
C   -4.702174822400  2.994019124100 -0.099898224500
C   -5.597916241300  2.231793675600 -0.795832710400
C   -5.228028781100  0.957211930600 -1.249901839400
C   -3.987321251200  0.453114205600 -0.972940862900
C   -3.050736771600  1.199334563900 -0.225403754300
C   -1.749625991600  0.705411897900  0.080195632900
C   -1.352332191900 -0.679999567500 -0.239142028600
C   -2.117171907700 -1.787782587000  0.231094449100
C   -3.177102520300 -1.633367083800  1.151083613400
C   -3.895376078900 -2.713052266100  1.585770329600
C   -3.593548243900 -4.003426731100  1.126421533100
C   -2.551670509300 -4.191738110100  0.262142620300
C   -1.781073186000 -3.101092247300 -0.191671249700
C   -0.674231033900 -3.287421102700 -1.047258511600
C    0.104940608600 -2.229929892700 -1.410237323100
C   -0.214254499800 -0.925966926100 -0.983441456300
O    0.623705617300  0.079574797400 -1.404068018400
H    7.165498998100 -0.554196318500  0.185987946600
H    7.688134597200  1.763484446600 -0.467426284300
H    5.840125631600  3.387399747400 -0.772552704800
H    3.515700468600  2.676388727900 -0.408662572700
H    5.024662652500 -1.802943306500  1.709372844100
H    5.455599968000 -2.355373927100  0.093148891900
H    3.093289853900 -3.016260952800  0.873100937100
H    3.148105954300 -2.148763231700 -0.670511780500
H    2.681305107800 -0.809138413400  2.033699005400
H    1.394951364300 -1.220178928900  0.889553598600
H   -0.428582533800  3.471523396500  1.521552476100
H   -2.739124193300  4.306623024800  1.168281604000
H   -4.965916435500  3.987536249200  0.233382988100
H   -6.586189123600  2.609446309100 -1.013325652900
H   -5.930562348000  0.373668772300 -1.826739527700
H   -3.709110812400 -0.523449337800 -1.338630583100
H   -3.409967194900 -0.647445611300  1.523478668000
H   -4.699864256600 -2.575179808600  2.293372600400
H   -4.178569632900 -4.843333556600  1.471300499700
H   -2.292285938300 -5.183055561600 -0.081180966300
H   -0.437355063000 -4.283949015300 -1.389489667900
H    0.975064283100 -2.355374924000 -2.036755796800
