55
-87.05404645
N    2.742206225200  0.399128675600 -0.970754594200
C    3.121790185500 -0.159116643200  0.260903669700
C    4.393315453300  0.067649232900  0.799236960500
C    4.726965022800 -0.533505613500  2.005622754400
C    3.832909043800 -1.342592860400  2.682463321600
C    2.582142177400 -1.578591867300  2.136835269000
C    2.236335005600 -1.000604864700  0.931635876900
C    5.418258811000  0.918410501400  0.093720862800
C    4.813650832400  1.697722908600 -1.069633617700
C    3.860676849500  0.776824096600 -1.820541990700
P    1.445025650000  1.511671891300 -1.161338285900
O    0.791285808900  1.309225146600  0.335899412000
C   -0.544045783500  1.650171991800  0.460336872700
C   -0.873620460800  2.862930932800  1.086050588300
C   -2.182897469300  3.217056909800  1.240318351200
C   -3.213816343200  2.402739481600  0.725669869100
C   -4.569152143400  2.784520498700  0.818438011700
C   -5.555010067000  2.011543105200  0.272518909900
C   -5.224149091300  0.827630355600 -0.404021500500
C   -3.921969833900  0.421380793100 -0.498003619800
C   -2.882095873700  1.180496025500  0.081659703100
C   -1.517330833800  0.786747259400  0.002296604800
C   -1.108200428000 -0.507974400800 -0.581795633400
C   -1.598831138100 -1.744460399700 -0.075628647700
C   -2.411904577600 -1.819051440100  1.076491523600
C   -2.862226302200 -3.023340751600  1.541693971300
C   -2.523784475100 -4.214983589600  0.882791411100
C   -1.712185579500 -4.180099678100 -0.216012639700
C   -1.217205503000 -2.955739550800 -0.712859640100
C   -0.334182455300 -2.910833570100 -1.812431673500
C    0.189260737400 -1.724120251500 -2.236383188100
C   -0.189758561100 -0.523086857100 -1.612766729300
O    0.368304434700  0.649051435100 -2.076574428600
H    5.709630381500 -0.354345148500  2.420359593600
H    4.112917723400 -1.792425532300  3.623695980800
H    1.876182169600 -2.222180967500  2.642011627700
H    1.274004728500 -1.209212922400  0.491440149900
H    6.209498779300  0.260794170400 -0.282535310900
H    5.880677806800  1.601093818600  0.810412669000
H    5.596602621900  2.069015081700 -1.731858936300
H    4.240085838000  2.550967828000 -0.697255902600
H    4.381808702200 -0.134822729200 -2.132466879100
H    3.453224861800  1.266766795800 -2.710294396500
H   -0.068684280700  3.488995153800  1.440739838000
H   -2.444190896500  4.140179522800  1.736216398700
H   -4.809780270100  3.709387801000  1.322832794600
H   -6.589998534700  2.311627411500  0.345961274100
H   -6.007613917300  0.237278847200 -0.856212739500
H   -3.675436065700 -0.484971101000 -1.029912136100
H   -2.666777021900 -0.909154626800  1.598284929000
H   -3.480410099300 -3.062489314200  2.426737128300
H   -2.897082387100 -5.156387268400  1.258527167200
H   -1.425285293400 -5.092675164400 -0.718763135700
H   -0.054840146900 -3.835038754700 -2.296611685400
H    0.897128707500 -1.672326821600 -3.049814125100
