55
-87.05598218
N    2.487699679000  0.531828872300  0.677808846200
C    3.619774141000  0.251842331200 -0.084624706300
C    4.509199530600 -0.763463159500  0.297160972000
C    5.600370542100 -1.044429417000 -0.512307203300
C    5.832655902600 -0.352503966400 -1.687167934000
C    4.950274367300  0.644772274300 -2.067116993500
C    3.859380477300  0.940307410100 -1.274484781400
C    4.305175616100 -1.554910242400  1.562503901600
C    2.884368849100 -1.392610261600  2.088007168400
C    2.528814696400  0.088847590200  2.059620626100
P    1.408782999500  1.741128301100  0.098914820800
O    0.272833431900  1.473790931400  1.273223776200
C   -1.034982725100  1.767303413500  0.931435562800
C   -1.614162180500  2.948309005600  1.421108533000
C   -2.913080376500  3.243839898500  1.121585087200
C   -3.668105606500  2.400191787700  0.279776941500
C   -4.991834067600  2.721513696400 -0.089066154900
C   -5.695837703300  1.921315398300 -0.944298134400
C   -5.099023236300  0.769433780100 -1.479404082000
C   -3.823697911600  0.421381642400 -1.130591575000
C   -3.079216578300  1.210101670200 -0.226445544500
C   -1.751337394100  0.878097977500  0.157133915600
C   -1.089391741400 -0.371634856400 -0.273990653200
C   -1.631067411000 -1.654515659600  0.014122142700
C   -2.788738856400 -1.826467759900  0.804311862100
C   -3.282238242500 -3.074750160800  1.064531330000
C   -2.645300255100 -4.215163748800  0.551778793000
C   -1.505607452900 -4.084873118500 -0.190749184600
C   -0.961626897100 -2.812214988400 -0.466551622000
C    0.241965812600 -2.667051394000 -1.188344924100
C    0.785171798900 -1.432166140900 -1.397022116700
C    0.119050079600 -0.286106679900 -0.934041235100
O    0.701414275300  0.946291264400 -1.165815228300
H    6.279659753300 -1.829534221800 -0.209500625100
H    6.689053270100 -0.589997618800 -2.300342517400
H    5.110680280100  1.197449133600 -2.981455752800
H    3.176402202000  1.723816321500 -1.572593402600
H    5.016808313600 -1.204490888100  2.318054928500
H    4.525640331700 -2.608015652800  1.374025449100
H    2.801728059300 -1.778924304800  3.104706919400
H    2.182895785400 -1.936406996700  1.451740482500
H    3.281103890100  0.659441800900  2.621497354500
H    1.552777589800  0.262148329900  2.510294596000
H   -1.009276425900  3.598622732200  2.035063631300
H   -3.370687060600  4.143197887000  1.506431535200
H   -5.433857416800  3.622049874400  0.312611434600
H   -6.707813925200  2.175357982400 -1.223620224700
H   -5.654425634100  0.157782571200 -2.175278009600
H   -3.367594191000 -0.460305812700 -1.554656209200
H   -3.279094225900 -0.955566578300  1.212002887700
H   -4.167714429200 -3.189077769000  1.672613080100
H   -3.054967352400 -5.192859752000  0.759189889300
H   -0.994435376400 -4.956663117200 -0.573638483700
H    0.744431983000 -3.551661845100 -1.551642716300
H    1.724069050900 -1.301933958100 -1.914606212800
