55
-87.04935722
N    2.613355606300 -0.078304988400 -0.885826141900
C    3.232669498900 -0.093085678900  0.382790540800
C    4.442279034900  0.583960611000  0.548545720800
C    5.068821413800  0.568051227900  1.781639259600
C    4.487255959900 -0.097127139600  2.849753959700
C    3.281505828600 -0.757472427400  2.683178879300
C    2.653503310400 -0.764855424200  1.449012846300
C    4.974479635200  1.272543741500 -0.669689124700
C    4.942173141000  0.263096884200 -1.819226315300
C    3.516077935400 -0.277612660200 -2.019030069600
P    1.480166243400  1.178193514500 -1.201281732000
O    0.814683991200  1.127594724000  0.306798849400
C   -0.491778294200  1.567769631200  0.403484662700
C   -0.740066751500  2.836850318300  0.950026642900
C   -2.022832699600  3.288822412500  1.069013834100
C   -3.104509043700  2.516920151000  0.594958257000
C   -4.430328757100  2.997498451800  0.646731099700
C   -5.463861016600  2.261984436700  0.138648713100
C   -5.212183043200  1.016527594900 -0.456822094500
C   -3.941385600100  0.514785035400 -0.508280479700
C   -2.854833806600  1.235478999200  0.033893611600
C   -1.520606378500  0.744619472000 -0.005824752200
C   -1.194569503600 -0.610943252200 -0.498213163600
C   -1.773194950000 -1.774979489800  0.080811051200
C   -2.604212671600 -1.718611261700  1.221311676900
C   -3.148817181700 -2.855417967300  1.751147607400
C   -2.890477762500 -4.107440818700  1.172747747200
C   -2.063098565000 -4.200387752600  0.089226052500
C   -1.473311531400 -3.048474662300 -0.473476609200
C   -0.579596982200 -3.136036798000 -1.561443856400
C    0.024544957700 -2.017203067300 -2.056917342300
C   -0.277851741600 -0.755490695100 -1.519362792200
O    0.345813182100  0.348373006400 -2.067586107700
H    6.007335204000  1.088982982900  1.910938232100
H    4.976188405400 -0.098722221800  3.813105640400
H    2.828564276300 -1.274955881200  3.516557833000
H    1.716636940900 -1.282353913300  1.305951558200
H    5.986085787700  1.645480336300 -0.507261303800
H    4.327117125400  2.121696918100 -0.919082194500
H    5.614721826800 -0.560628657600 -1.570948230100
H    5.296869055200  0.723534661100 -2.741937946300
H    3.557754801200 -1.355458058100 -2.217212015800
H    3.043009924200  0.199877119500 -2.884694797700
H    0.104589765400  3.427106135000  1.272767637900
H   -2.222493557500  4.257122433400  1.503752392700
H   -4.609092330600  3.967439631700  1.088345672400
H   -6.475563227000  2.638091214000  0.179546982400
H   -6.031905997400  0.454779830200 -0.880302807100
H   -3.754855486900 -0.439080917600 -0.977929594900
H   -2.799231171400 -0.761790232200  1.681365236900
H   -3.781033419500 -2.794098706100  2.624975763600
H   -3.338267870000 -4.993709005600  1.597989815000
H   -1.838072216300 -5.161144811400 -0.351586815600
H   -0.361083534600 -4.106788898400 -1.981874415500
H    0.734978512600 -2.066961180700 -2.868180511000
