55
-87.04947882
N    2.620357379200 -0.003078658400 -0.933482475300
C    3.167426351000 -0.127239687400  0.360364014700
C    4.376648824200  0.511442315600  0.641493564300
C    4.935891125600  0.387336039500  1.900461103400
C    4.287214885400 -0.346595516800  2.881422098900
C    3.081201814000 -0.967029393500  2.601470378500
C    2.520409302300 -0.866750785200  1.339428890200
C    4.981150847100  1.284738480600 -0.489021801600
C    4.997072420600  0.371028490300 -1.716425743800
C    3.577260346200 -0.130240285900 -2.031217451000
P    1.481477923100  1.250536027600 -1.227230939400
O    0.822043040400  1.187873836700  0.282679300800
C   -0.490858577800  1.604481391400  0.393319529000
C   -0.755907358700  2.864727746400  0.952393254400
C   -2.045188833600  3.292481386900  1.089016590800
C   -3.118164276800  2.504406909500  0.621859256100
C   -4.451924007900  2.959783981300  0.693413526900
C   -5.477827637700  2.208804346100  0.192512631600
C   -5.210477641400  0.972582705900 -0.415236787500
C   -3.931276155500  0.495153932100 -0.486229251600
C   -2.851699272300  1.232125442500  0.047890415900
C   -1.509292210000  0.766383878100 -0.011343082800
C   -1.164173362400 -0.577979284000 -0.520961438800
C   -1.711520937000 -1.759152055900  0.053204391700
C   -2.527644508700 -1.731138841400  1.205438455600
C   -3.041357864800 -2.884190224700  1.730943975100
C   -2.765434805500 -4.124751314900  1.136124141600
C   -1.951545192200 -4.189869167100  0.040419123100
C   -1.393276523400 -3.020516944800 -0.518432337200
C   -0.512246325200 -3.078650832900 -1.618701275000
C    0.062866120800 -1.942736814600 -2.109975272100
C   -0.258462405400 -0.692979503900 -1.555637508900
O    0.339010953800  0.428987674300 -2.095067087100
H    5.874185909600  0.877905479500  2.119235063800
H    4.723819233400 -0.432585190700  3.865848279500
H    2.575392457600 -1.537353158700  3.367241421800
H    1.584164856600 -1.352756634800  1.107572927400
H    5.987239117000  1.627144811100 -0.245544262000
H    4.357685580800  2.161198425300 -0.702376148800
H    5.646548234700 -0.480134978600 -1.501612023600
H    5.404389983200  0.898251277100 -2.579732299300
H    3.617352877300 -1.190166086600 -2.310393007200
H    3.154902195200  0.418833267500 -2.880612038300
H    0.081326857600  3.467887326400  1.270493676300
H   -2.257337335100  4.253783298700  1.533268274300
H   -4.643248621500  3.922926288700  1.144542116400
H   -6.495772175900  2.565619762200  0.248658360800
H   -6.024832322600  0.398616432900 -0.832661900900
H   -3.732904138200 -0.451617982700 -0.965294540100
H   -2.735647659100 -0.782978094200  1.677620490900
H   -3.662467992900 -2.844743038300  2.613945157600
H   -3.189004197000 -5.024290034100  1.558291657700
H   -1.713050963000 -5.141338857300 -0.413260393100
H   -0.279345383500 -4.040473314400 -2.051744068700
H    0.764160971000 -1.969492410700 -2.930249230500
