50
-71.88702834
C    0.790164219500  0.379870186200  3.437873150400
C    1.794986531900  0.149556169400  2.304433009900
C    3.212733419800  0.370624732500  2.826932794100
C    1.659220254100 -1.281296148600  1.791244722800
P    1.284803994700  1.434127856400  0.959304202500
C    2.909480733000  2.253961702000  0.477017619500
O    3.637114074300  1.432330601400 -0.420149793400
C    2.792938490800  0.608720308600 -1.094336919600
C    3.174661435700 -0.062446072500 -2.245092916400
C    2.231460395000 -0.836111170200 -2.902466092400
C    0.933615384500 -0.934803635600 -2.430487048200
C    0.549224571500 -0.287162336400 -1.257671120400
C   -0.835229109700 -0.370720674100 -0.751476977800
C   -1.371654043700 -1.608606496700 -0.356911169200
C   -0.635048858000 -2.821339173900 -0.430326492400
C   -1.180704920000 -4.005279011900 -0.036481821400
C   -2.497746835300 -4.058612050600  0.465130628500
C   -3.232679227700 -2.918428699600  0.568518126600
C   -2.700976992600 -1.664658065200  0.168949081000
C   -3.441734504100 -0.493016967600  0.286345220400
C   -2.930330739400  0.733586429500 -0.124532563300
C   -3.695602901500  1.924495925000 -0.023367869100
C   -3.202163596900  3.114895008900 -0.458878456200
C   -1.917641830300  3.176405799200 -1.037752992300
C   -1.148929395200  2.057325990200 -1.141853324600
C   -1.609709735900  0.799640719600 -0.669666574900
C    1.500848369500  0.467804644900 -0.578085609500
H    0.855743693200  1.403232132200  3.805503697900
H   -0.226262722200  0.209508231100  3.084768379200
H    0.986281277900 -0.298669603900  4.266745545400
H    3.951653153000  0.239793099300  2.038201236000
H    3.423324493900 -0.360028898500  3.607641215600
H    3.323127484000  1.363246107700  3.260780627600
H    1.848351040000 -1.980875027800  2.605086553500
H    0.655314607100 -1.464162459600  1.415064059300
H    2.373642035700 -1.486165096800  0.995362557600
H    2.637791963300  3.187182862300 -0.043881400200
H    3.553634972800  2.509518792200  1.317664626100
H    4.181641536300  0.041537431500 -2.618054923300
H    2.511048348200 -1.353386728400 -3.808325468900
H    0.200981012500 -1.507582100800 -2.979914002800
H    0.377149632100 -2.792762700100 -0.804780563000
H   -0.604132892400 -4.916684824100 -0.102631896100
H   -2.910217333300 -5.009675225600  0.769488843600
H   -4.240590941500 -2.943087159900  0.958348881700
H   -4.439730696300 -0.538395664400  0.700252271000
H   -4.686317701600  1.858669196700  0.403973202700
H   -3.790388480500  4.017550916600 -0.378874707200
H   -1.550190407400  4.123530246800 -1.405526312200
H   -0.176737371200  2.114725929000 -1.609610965300
