50
-71.89166626
C    0.405203259700  1.126609342700 -2.414426687700
C    1.851069024200  0.721955429000 -2.124041169200
C    2.514192520300  0.267444388700 -3.426281526600
C    2.610043468400  1.899283698200 -1.519116958400
P    1.762384641800 -0.814109143100 -0.994008952400
C    3.571461180300 -1.026128384700 -0.512881439500
O    3.896155561700 -0.227954369900  0.613460469500
C    2.781270969800  0.162648671100  1.279551304900
C    2.848623450200  0.744763339700  2.535673296900
C    1.665958580800  1.077080679400  3.176095465100
C    0.440554488600  0.827809417300  2.582655351600
C    0.364123379300  0.261090287800  1.311188865800
C   -0.945389572100 -0.025957001800  0.692191654200
C   -1.316177087400 -1.357432242800  0.440741750200
C   -0.501610563900 -2.461271105900  0.807650548000
C   -0.884226771000 -3.740645094900  0.541547668100
C   -2.110490450700 -4.004783135400 -0.103203015000
C   -2.934692006200 -2.978109266500 -0.445384075800
C   -2.576099224500 -1.631079684000 -0.178832956500
C   -3.426547882000 -0.577821675700 -0.499159350400
C   -3.080954467400  0.742525859500 -0.229955317500
C   -3.950404401500  1.817128890200 -0.551107423800
C   -3.594023173300  3.106912149200 -0.305195363400
C   -2.338618964300  3.395299108400  0.269372050600
C   -1.478174634400  2.391328545100  0.595006644600
C   -1.816622554300  1.029354124100  0.373802296600
C    1.549283690100 -0.046586609000  0.649783979400
H   -0.089199103100  1.473938917400 -1.510504047700
H    0.378603317100  1.930878760800 -3.148593796700
H   -0.157380257500  0.281385826800 -2.809372950600
H    2.004243576700 -0.608086599000 -3.826838952100
H    3.562442242900  0.016000306500 -3.275994741100
H    2.461732429900  1.063586304400 -4.167560954200
H    3.635590649200  1.633615007300 -1.269525358700
H    2.639835986900  2.719192627100 -2.236282737400
H    2.117408515400  2.257678665000 -0.616395275600
H    3.722289176200 -2.083556598900 -0.244397021400
H    4.263134238500 -0.782437465100 -1.322233349900
H    3.809420604100  0.914054958500  2.996002829300
H    1.703220197900  1.521725708100  4.159539625100
H   -0.473423917000  1.060211205700  3.109397555000
H    0.430441138700 -2.274276423200  1.321108625600
H   -0.251130027300 -4.567642329500  0.828953352700
H   -2.389919158100 -5.027773974600 -0.309827807200
H   -3.885037792200 -3.167235403900 -0.924528920700
H   -4.378541728200 -0.789901278400 -0.966059009500
H   -4.905178180000  1.583217752200 -1.000599148100
H   -4.261330810600  3.919785279700 -0.552569134300
H   -2.063076348000  4.425174592900  0.445593995500
H   -0.515262518000  2.623474364600  1.026298650000
