70
-106.10324370
C   -3.911841014700  1.617997283900  1.585665386400
C   -3.807279706200  0.234512036600  0.935769424100
N   -2.653153230700  0.194211330100  0.027495173700
P   -1.590209854900 -1.113444473000  0.320387284500
O   -0.536164725200 -0.474305971200  1.436733363900
C    0.325868968900  0.562435175700  1.176058683600
C    1.365446857400  0.431601024900  0.275861353000
C    0.164406306500  1.744797180800  1.920219482900
C    1.012997166800  2.797585000700  1.745059959500
C    2.027195249000  2.744155817900  0.766720952000
C    2.192362864300  1.557442010800  0.005080328400
C    3.153998841100  1.555412126600 -1.028397565900
C    3.941754025800  2.648588915400 -1.259583216400
C    3.812837376600  3.801288622200 -0.470441052600
C    2.869120717900  3.848077039300  0.516529678500
O   -0.698872715900 -0.885910561300 -1.052429650700
C    0.547061413000 -1.474708859400 -1.051306958500
C    0.727287346900 -2.673261883500 -1.761205643300
C    1.954447508100 -3.269206845400 -1.799036826500
C    1.593973713200 -0.864402706300 -0.392668785800
C    2.855695814900 -1.522177899000 -0.345307596500
C    3.038041797100 -2.726618664100 -1.076890007300
C    4.294501703800 -3.368152493600 -1.045835230000
C    5.321166755200 -2.865891143800 -0.297014428600
C    5.126855195900 -1.705644483500  0.467520974900
C    3.926834128500 -1.050681079000  0.445008536200
C   -2.944994955200  0.683062076000 -1.322224012300
C   -1.753909551300  1.428552577700 -1.887972511200
C   -1.241011627200  2.490527522800 -1.150292921300
C   -0.179463308500  3.239165971300 -1.621041984900
C    0.395771993800  2.933968510700 -2.842607689600
C   -0.106483325900  1.880720116000 -3.585327571400
C   -1.177691797100  1.138365950600 -3.117045041300
C   -3.500374304500 -0.418577001700 -2.225068629100
C   -3.721955397400 -0.877200246500  1.955948570000
C   -3.025799749600 -0.747257552600  3.151701601600
C   -2.975804239900 -1.793360011000  4.056428665500
C   -3.628231126500 -2.983513629300  3.787089716600
C   -4.337829711200 -3.120573910000  2.605732750800
C   -4.385254875900 -2.074872708400  1.703053085900
H   -4.158657462100  2.369857241000  0.838887556800
H   -2.966615175100  1.894481943700  2.043014027300
H   -4.690405565800  1.613516908700  2.345091358900
H   -4.726987737700  0.066129218700  0.354020819000
H   -0.633580886500  1.782314505100  2.646324242200
H    0.900879157300  3.695401723800  2.335947331500
H    3.251851186900  0.679053434100 -1.650999366900
H    4.668304940500  2.630875113500 -2.059106035400
H    4.451839036900  4.651732623600 -0.659204202300
H    2.742229445900  4.739242541900  1.115346999600
H   -0.123620805500 -3.097757616600 -2.272919080900
H    2.103278342200 -4.180569102500 -2.359403863400
H    4.423328420400 -4.274975226300 -1.619496385700
H    6.279392126100 -3.364059352600 -0.276259621000
H    5.933666904600 -1.332600242900  1.081464140600
H    3.784038716500 -0.166448243000  1.047209111500
H   -3.736369520600  1.436832550100 -1.197187333600
H   -1.681292699900  2.727372938100 -0.192910798200
H    0.198913671400  4.064429495200 -1.036194177700
H    1.229294274400  3.513861273700 -3.211057155100
H    0.336159383800  1.633528664700 -4.540182609900
H   -1.548356861500  0.322181040900 -3.716596081600
H   -2.749340978100 -1.185194388300 -2.392393225500
H   -4.360906575800 -0.881282519000 -1.744364721000
H   -3.821066461600 -0.005514298200 -3.178691287200
H   -2.516023665300  0.173035418100  3.385411123700
H   -2.424475368200 -1.675609918400  4.978192351100
H   -3.587626600800 -3.798739020400  4.494549746800
H   -4.857802221900 -4.042311262000  2.388485924900
H   -4.944872465000 -2.188129997500  0.784399264500
