70
-106.10380164
C   -3.109954532900 -2.553142154100  0.001147311000
C   -2.921759968100 -1.034640191500 -0.030649916000
N   -2.395361448300 -0.507030018200  1.225539810800
P   -0.896677199000 -0.804965143600  1.938652744000
O    0.006263513000  0.587702311900  1.677359558900
C    0.610082302300  0.976301469100  0.512161640600
C    1.550572308900  0.192477922500 -0.128901985900
C    0.301790123000  2.264448871300  0.035442476300
C    0.904800949000  2.752970881300 -1.084234490900
C    1.782639925300  1.944733208900 -1.835556591300
C    2.088516486600  0.639794738900 -1.369698187100
C    2.892292069100 -0.187422643900 -2.183379418600
C    3.406789219300  0.270866039700 -3.364555141200
C    3.148140183000  1.580370817200 -3.794884237200
C    2.345775020800  2.395642498000 -3.047032834100
O   -0.287275831900 -1.743452744800  0.736782650800
C    1.062653761300 -2.018449695300  0.860243661400
C    1.444015840100 -3.272571460600  1.364215459900
C    2.765899940200 -3.586806253800  1.488754597700
C    1.994740793800 -1.081122933500  0.469361357000
C    3.375949858600 -1.357008733600  0.690638582400
C    3.759907908300 -2.633575644200  1.182189645800
C    5.128670757700 -2.913353417200  1.380332657900
C    6.081223900900 -1.963025968400  1.142599360900
C    5.699548133400 -0.683399814400  0.712955067000
C    4.382835605300 -0.387188117800  0.492690283200
C   -3.327903567600  0.108531584400  2.171128543900
C   -3.854949357700  1.408073761600  1.602387046500
C   -3.063287467200  2.546293413800  1.718796627600
C   -3.461629828900  3.751448546600  1.170404808500
C   -4.668464379700  3.839451142300  0.495379735800
C   -5.470584905100  2.717802880200  0.383512844200
C   -5.068476574700  1.510895977800  0.933325584100
C   -4.418085947300 -0.840587465300  2.666528687200
C   -2.099998105500 -0.545764610900 -1.207623618600
C   -2.177321847700  0.802336049900 -1.541680517100
C   -1.487307491900  1.308090729200 -2.627177301100
C   -0.696375166600  0.473066752100 -3.396877847500
C   -0.602929927800 -0.866948153600 -3.067498715300
C   -1.303664415700 -1.374354580900 -1.986913659100
H   -3.796736260500 -2.827936246700  0.797040370100
H   -2.165216289100 -3.054669141200  0.182385411400
H   -3.521272651200 -2.891861800800 -0.947526994900
H   -3.912314187800 -0.575870739800 -0.146428485100
H   -0.410887501300  2.852117978300  0.592386871900
H    0.690951583500  3.754841835700 -1.427105423000
H    3.087077502800 -1.201940764300 -1.869719511700
H    4.014385453300 -0.379541861700 -3.977139062300
H    3.572726221600  1.930641880600 -4.724579451600
H    2.115528697400  3.398036134200 -3.379792528800
H    0.667300517800 -3.970638344300  1.639163550000
H    3.066205167200 -4.557793935000  1.853960627000
H    5.406422355500 -3.894579974300  1.737999363600
H    7.126944855600 -2.183531243400  1.299296568900
H    6.454987394300  0.073618864200  0.560699611600
H    4.100462451100  0.605143959100  0.176129348700
H   -2.703208711400  0.369574688700  3.038813891100
H   -2.123455149400  2.473950410700  2.248844412600
H   -2.832847422900  4.624739473200  1.271308369600
H   -4.983000782800  4.778548817400  0.064007791400
H   -6.416354827300  2.778881462000 -0.135557684000
H   -5.718785480400  0.654396470600  0.840041133800
H   -5.041796425800 -0.326047296900  3.394186761400
H   -5.049369597100 -1.194745543100  1.857056799800
H   -3.954499079600 -1.699582954700  3.147231932700
H   -2.791060352700  1.460730515600 -0.943068073100
H   -1.571601183100  2.356344900300 -2.874459938000
H   -0.154115121700  0.863880759800 -4.245196892400
H    0.016908959000 -1.525734952200 -3.659073643300
H   -1.216988473500 -2.424006335400 -1.755587354000
