70
-106.10363187
C   -4.297029484100 -2.935227680500  0.395328277800
C   -3.408592448400 -1.856843779000  1.012332980300
N   -2.352551458300 -1.405891037800  0.104013557200
P   -0.831205266200 -1.885696986700  0.622873044400
O   -0.163718637100 -0.573640141100  1.440161246500
C    0.520461484500  0.494500985200  0.935326509400
C    1.627049652400  0.357404789200  0.118182923700
C    0.099705106500  1.766195203200  1.370465992100
C    0.758240785600  2.889490713900  0.971687687800
C    1.819346236300  2.807038871800  0.046078154600
C    2.240378394500  1.530966948200 -0.409500221700
C    3.231327775400  1.475832614900 -1.413590116600
C    3.810330016300  2.616621044500 -1.897399229100
C    3.433049121900  3.873179687800 -1.402118657200
C    2.452075124400  3.963181371800 -0.454613889600
O   -0.032396879200 -1.716143158900 -0.805918614300
C    1.326596671700 -1.958433505200 -0.690628042700
C    1.812685168700 -3.214334760200 -1.089493030400
C    3.143791254900 -3.495758896800 -0.990458906000
C    2.164386242800 -0.977274268400 -0.205071029200
C    3.539285378700 -1.295921956500  0.002752577400
C    4.031886987000 -2.560092776200 -0.418283741100
C    5.395946888500 -2.866912725700 -0.228777813700
C    6.235777727900 -1.982155267500  0.386955741000
C    5.738166851600 -0.757597031600  0.856130993600
C    4.425454010500 -0.422458271700  0.669687320400
C   -2.766780017400 -0.734174721200 -1.127551619000
C   -2.099189577900  0.616440354100 -1.294045624600
C   -1.005429114000  0.830556749300 -2.122552870300
C   -0.479802694000  2.100897392700 -2.284357900700
C   -1.039234977800  3.179732700200 -1.624057673700
C   -2.121551652000  2.977282968100 -0.785365308100
C   -2.643701544200  1.707662284500 -0.623818755200
C   -2.621716955800 -1.633779692500 -2.358127655900
C   -4.158112216100 -0.665412015700  1.569168399800
C   -5.445300908000 -0.318315010600  1.180210173100
C   -6.058354131400  0.810058079300  1.702644033600
C   -5.394686837200  1.605865935000  2.618992247500
C   -4.110582661800  1.266632261600  3.015621004600
C   -3.501380700400  0.140912955500  2.494201746500
H   -3.678859032700 -3.783217946900  0.108448334900
H   -4.819956661500 -2.575869370600 -0.486312493000
H   -5.029376742500 -3.267859999400  1.127264408200
H   -2.873987354000 -2.317083451400  1.856331160900
H   -0.747736329800  1.814226657300  2.036947809800
H    0.452165987900  3.860021173400  1.333591107700
H    3.521167328400  0.515987042900 -1.814021786100
H    4.561558625700  2.553666474500 -2.671479853400
H    3.909770123400  4.763534100000 -1.785679152300
H    2.131796912500  4.926362372300 -0.083013334300
H    1.107131784100 -3.934458573600 -1.476490068800
H    3.527887360600 -4.450844102900 -1.316917535000
H    5.759544121500 -3.825716004400 -0.569892089200
H    7.278209200400 -2.225344408500  0.531494579200
H    6.399513353700 -0.077980472700  1.373516414000
H    4.051163934400  0.516202807000  1.048504320100
H   -3.835972995500 -0.523560163000 -0.994901929100
H   -0.556219458500  0.007768356600 -2.655555073100
H    0.369894715600  2.248466463700 -2.935514685800
H   -0.633395703200  4.170823221500 -1.763574147500
H   -2.567698740600  3.810318993700 -0.261085454300
H   -3.495090860500  1.560074393100  0.025439547200
H   -1.594692134400 -1.955814419500 -2.488102841600
H   -3.241650583000 -2.519518748200 -2.246555055800
H   -2.940809949900 -1.090265098300 -3.245245377700
H   -5.986751430200 -0.925002866100  0.470792073900
H   -7.059979221400  1.066691679800  1.388590017700
H   -5.874413712100  2.484871968900  3.024266166100
H   -3.586350633600  1.880272024000  3.734364999900
H   -2.497425883900 -0.124802669600  2.795956628800
