70
-106.10098503
C   -2.911266770200 -2.133414818200  1.992462403400
C   -3.111199882300 -0.765075694000  1.342966054500
N   -1.876853603300  0.015203903200  1.291500326500
P   -0.467877023200 -0.711193055600  1.924852031700
O    0.614782876000  0.527906037100  2.027405617700
C    1.308098392600  1.124908947200  0.994597923500
C    2.111645137500  0.415330063800  0.123861451200
C    1.237242146000  2.530567404700  0.922306742400
C    1.881372654800  3.209798000700 -0.069210058200
C    2.589297395700  2.512991071800 -1.070584655700
C    2.702995211900  1.101076515100 -0.978107423500
C    3.363425796100  0.414793114800 -2.020532746100
C    3.917076718600  1.093809378600 -3.070721664700
C    3.842734437300  2.493041966100 -3.135273787100
C    3.185490572200  3.185761213400 -2.157561301300
O    0.011241386200 -1.370149542900  0.461682400400
C    1.286097672000 -1.884513722500  0.455367510900
C    1.466376647100 -3.272908905900  0.572337171100
C    2.725151670500 -3.799248900000  0.570171427200
C    2.357647133300 -1.026618227700  0.323516039300
C    3.678120782000 -1.551660898500  0.413029433500
C    3.856723313600 -2.957504823400  0.516498612200
C    5.164671512700 -3.481778009800  0.586707454900
C    6.253315258900 -2.655737907500  0.590874977900
C    6.076255083100 -1.264996103100  0.542029800400
C    4.822572713400 -0.725898504000  0.455828212900
C   -2.065009718000  1.463097804000  1.383545001800
C   -3.081835349400  1.910068519600  0.356277377500
C   -4.366927669500  2.319758525000  0.682301102400
C   -5.256009361600  2.703569191900 -0.308077909600
C   -4.874275366400  2.681523745800 -1.636972381700
C   -3.592252042900  2.279092887800 -1.972573435700
C   -2.705556993400  1.901277983500 -0.983103572400
C   -2.361676136800  1.919067254300  2.815241689300
C   -3.683810531100 -0.967134641000 -0.046442473700
C   -5.049343672100 -0.844909827300 -0.263759134600
C   -5.585361566700 -1.062665625800 -1.520561265200
C   -4.760079675000 -1.408409629300 -2.576418988000
C   -3.397588230100 -1.538735577100 -2.366148566200
C   -2.864531935800 -1.322374629400 -1.108603768000
H   -2.609105927500 -2.026180503300  3.032482029500
H   -2.150933180100 -2.694513644400  1.454011818800
H   -3.845232970100 -2.691160465400  1.951942003200
H   -3.857137428400 -0.217943071800  1.934863921000
H    0.680486126200  3.053923392900  1.685769796100
H    1.835436050400  4.288042717900 -0.110467893500
H    3.414265336100 -0.663030422500 -1.990229642400
H    4.412435519100  0.550729512800 -3.862358677900
H    4.294950146200  3.013713252300 -3.966618332000
H    3.100662171400  4.262060552300 -2.205627470200
H    0.589861687400 -3.898117933400  0.655262524600
H    2.871521183100 -4.867158645300  0.639381398700
H    5.286445134100 -4.553791860800  0.649172176100
H    7.251470466100 -3.064697281800  0.646996101500
H    6.940304880000 -0.617572347400  0.577627506700
H    4.698212730300  0.346026261600  0.432344981000
H   -1.115272922100  1.912743900600  1.082255096700
H   -4.688766539100  2.346146564400  1.712147266300
H   -6.253395729600  3.019424557400 -0.037070566400
H   -5.570407426400  2.977879213100 -2.408007933000
H   -3.282556633100  2.261516724700 -3.007489420700
H   -1.705847473100  1.585493271300 -1.246946470300
H   -2.520532765500  2.994846690400  2.841768150200
H   -3.237440847500  1.422190940400  3.225755784800
H   -1.508380218500  1.670948121100  3.445306194300
H   -5.699996108400 -0.572744862600  0.556018562400
H   -6.649772759700 -0.958713600200 -1.676044488600
H   -5.177039276100 -1.575106090400 -3.559330052500
H   -2.747543546400 -1.810442984300 -3.186091729700
H   -1.802583325400 -1.415896909300 -0.944163962300
