70
-106.10080086
C   -1.354600368100  1.806925989700 -0.611588073500
C   -2.490046912100  1.006543362300  0.029854227600
N   -2.339802306700 -0.433283935200 -0.154966053600
P   -0.978510536700 -1.392431464800  0.038114782800
O   -0.173345716000 -0.755559102000  1.341492639900
C    0.780886269200  0.223348303600  1.399858683000
C    1.907672386400  0.241861116800  0.598572246100
C    0.591852445900  1.201175498200  2.399181654200
C    1.477218840200  2.225335250600  2.547703465200
C    2.570716900900  2.359998696300  1.665667478000
C    2.781093838800  1.368996183500  0.671493417800
C    3.827790731800  1.568965702000 -0.254895594900
C    4.650500746400  2.658082687300 -0.166628655200
C    4.472665347100  3.606812126700  0.850483974400
C    3.446628357600  3.462484217400  1.741770348400
O   -0.024865615000 -0.740778562500 -1.183926162700
C    1.238715965100 -1.281472371000 -1.228808494800
C    1.516821827000 -2.261108304100 -2.198285042600
C    2.753738199200 -2.831592270400 -2.262069930600
C    2.201558318700 -0.862306951700 -0.333614815000
C    3.463452531300 -1.525374766800 -0.320756380100
C    3.744553280800 -2.503100273400 -1.311940747200
C    5.000462673100 -3.145418569400 -1.310193148600
C    5.930565582300 -2.866770879700 -0.348444037200
C    5.632833995100 -1.943654314100  0.664678994000
C    4.431750770200 -1.289902944200  0.679281695600
C   -3.607576594500 -1.090761550500 -0.459413487400
C   -4.071624572200 -0.725728255200 -1.855620810700
C   -5.398579266000 -0.399776296600 -2.101571780200
C   -5.821167747500 -0.097223530500 -3.384930834200
C   -4.918873509500 -0.113785860100 -4.434951578900
C   -3.592543336400 -0.435108401700 -4.196359263400
C   -3.173769489400 -0.741994809900 -2.914458767300
C   -3.543450597700 -2.610553581200 -0.347679699400
C   -2.712238799400  1.385725365900  1.484798167800
C   -2.810636672300  0.429117366400  2.486253727000
C   -3.036023853200  0.796715188500  3.802604968400
C   -3.171998207900  2.131599323500  4.139998334400
C   -3.092177117700  3.094077797400  3.147073438600
C   -2.872048211700  2.723655551400  1.832905882900
H   -1.184038808500  1.444546557900 -1.622098649300
H   -0.433278066900  1.717463341300 -0.043910557900
H   -1.621985893200  2.859057806000 -0.665146451500
H   -3.405959069200  1.282503713200 -0.516530714700
H   -0.275339342000  1.107584065400  3.033745166300
H    1.332772956900  2.962146486700  3.324090734600
H    3.966829535300  0.856258509000 -1.053459698000
H    5.442009501200  2.794860346900 -0.889101170800
H    5.138753031100  4.454900938900  0.912818794600
H    3.279860404500  4.198641001400  2.515320004200
H    0.730117677700 -2.536955186400 -2.884676393800
H    2.979589224800 -3.567123471900 -3.020154967800
H    5.206366808400 -3.874706611400 -2.080785433100
H    6.889059362100 -3.364827911800 -0.351878302100
H    6.359353312100 -1.753792983400  1.441346325700
H    4.208978307500 -0.592077018700  1.472093983500
H   -4.356243041100 -0.731259296000  0.263374195800
H   -6.105248283000 -0.382146973600 -1.282939253000
H   -6.856419336600  0.155069299600 -3.564331047100
H   -5.247659354300  0.125058970600 -5.435979196300
H   -2.883688080300 -0.447120790200 -5.012066479200
H   -2.138832204300 -0.983886984900 -2.721117003000
H   -4.532110665700 -3.021344711900 -0.543241793100
H   -2.847174277400 -3.017497593200 -1.077497487900
H   -3.226277877000 -2.910820465300  0.648510759100
H   -2.693683755100 -0.617173411800  2.243569718300
H   -3.102410230100  0.033992550100  4.565623378000
H   -3.343400664600  2.420082559600  5.166895934000
H   -3.205814012500  4.139400972700  3.396425362500
H   -2.829022009700  3.487451560000  1.070812888200
