70
-106.10299232
C   -3.370065762500  0.637875834800  3.244852340500
C   -3.647411015200  0.224260757100  1.799510483200
N   -2.504203618700  0.505115718100  0.929407264800
P   -1.304300077300 -0.664259482300  1.125390598400
O   -0.026699031500  0.107310590200  1.892616933400
C    0.919552390800  0.930528234400  1.346301422700
C    1.707157140600  0.570605832900  0.269032210900
C    1.118703965700  2.163446003000  2.002214129900
C    2.046844912100  3.052601703000  1.550092631300
C    2.777451196800  2.784653165400  0.372146967600
C    2.593331821800  1.540523766300 -0.285912469800
C    3.265356589400  1.329182096300 -1.508996947700
C    4.112001251800  2.273474603100 -2.021241465200
C    4.333211535500  3.479113478700 -1.339965616400
C    3.670443791900  3.730857710000 -0.171278194800
O   -0.740494709100 -0.606448366500 -0.426824013000
C    0.413946336800 -1.320646256600 -0.656116229800
C    0.311994136900 -2.577651097700 -1.275841100300
C    1.434774409400 -3.310253791000 -1.526491535900
C    1.635258721100 -0.788180704000 -0.299592325200
C    2.805779289000 -1.586105189900 -0.463014548500
C    2.700586501800 -2.849079036300 -1.104982777300
C    3.861692941700 -3.629971367700 -1.284874089000
C    5.074014011900 -3.204940172400 -0.818791340400
C    5.169850551400 -1.984672692200 -0.134158243700
C    4.066031018100 -1.196272753900  0.040162193100
C   -2.207938417800  1.877417919300  0.509627522300
C   -1.662679067000  1.891548786800 -0.902424165700
C   -2.331340931800  1.227230387200 -1.922925207700
C   -1.849639364300  1.258317204400 -3.217643321300
C   -0.696895682200  1.967847592400 -3.513791028300
C   -0.038184241100  2.652990062500 -2.508554271600
C   -0.522086000200  2.617913589200 -1.212022239800
C   -3.422193042300  2.812227179800  0.528227984100
C   -3.977483696500 -1.245126354200  1.637080523900
C   -4.245400721000 -1.713256990500  0.352623811600
C   -4.551525474100 -3.040905860500  0.124859673200
C   -4.605393383100 -3.930973312000  1.185243359200
C   -4.354556410500 -3.475761791600  2.466838055000
C   -4.044343922900 -2.144293312600  2.692920225800
H   -3.126117059400  1.697054843700  3.289233716800
H   -2.516855912400  0.078509629600  3.626068473400
H   -4.239729975800  0.459404911100  3.872804720900
H   -4.508582833200  0.790127030600  1.425933372200
H    0.522185605900  2.368191028700  2.879913709900
H    2.210431540400  3.985886943200  2.069482112100
H    3.088627125500  0.413412877200 -2.052290647800
H    4.611555313000  2.095518622400 -2.962566315800
H    5.014214192400  4.209215650600 -1.752498806200
H    3.809944543600  4.667009907500  0.350915158600
H   -0.672308458900 -2.930026959000 -1.545447824300
H    1.365812562700 -4.267312994800 -2.022361068700
H    3.768377823200 -4.580924929800 -1.789767286000
H    5.958116148700 -3.809588670200 -0.958396332900
H    6.124554246000 -1.670570178900  0.261974447500
H    4.150597268300 -0.266643964700  0.581913510100
H   -1.443982642700  2.308610454000  1.176264348600
H   -3.222788189000  0.663826204100 -1.691923514900
H   -2.372537346200  0.726165383800 -3.999865609400
H   -0.314890881700  1.987200655200 -4.524427688200
H    0.860412900100  3.211528131100 -2.728079288200
H    0.000027095700  3.155741648000 -0.433131731600
H   -4.211089865700  2.432979843800 -0.116780222500
H   -3.813629225500  2.957868982500  1.531439037000
H   -3.107199716400  3.780232546800  0.142492369400
H   -4.209171337800 -1.022067776600 -0.475849218700
H   -4.753016053500 -3.382166760000 -0.880545094600
H   -4.844346024300 -4.970199448000  1.012664427200
H   -4.398345904400 -4.160642542500  3.301452508000
H   -3.852894132200 -1.820352249600  3.702979531200
