70
-106.10083755
C   -2.401284954800  2.177666670800  0.026841862500
C   -1.955823069700  0.781911026000 -0.414777069600
N   -2.010710715200 -0.182776216000  0.682515710000
P   -0.636341089800 -0.826028705900  1.389189926500
O    0.363254022600  0.472794101500  1.663934791500
C    1.209651307100  1.100765291800  0.782427011200
C    2.190637340900  0.434134629500  0.072443383500
C    1.085716930100  2.501695575200  0.691713060700
C    1.878903870100  3.218507066400 -0.153001403000
C    2.803570326500  2.564728632700 -0.994636426900
C    2.954143601700  1.157112610100 -0.891426064600
C    3.828205933200  0.512236090000 -1.793619888100
C    4.548376648900  1.227470147800 -2.710334815200
C    4.434603313100  2.623792228500 -2.775612197700
C    3.572667587800  3.275812847600 -1.939012014400
O    0.101234890000 -1.402669456600  0.000751543100
C    1.375158927500 -1.886318459800  0.208619395100
C    1.561701453900 -3.273541317700  0.328605695400
C    2.810963327600 -3.776692801300  0.544874381900
C    2.431875189200 -1.004731671300  0.289757324100
C    3.725335309000 -1.508487013500  0.610062303300
C    3.913736460700 -2.912442677500  0.717337447300
C    5.197326058300 -3.413279610700  1.020318027700
C    6.246666395100 -2.566878097700  1.244456699800
C    6.049856912600 -1.179133533000  1.190477554700
C    4.821980990300 -0.662212134500  0.881827716200
C   -3.251031877300 -0.771635689400  1.183351469000
C   -4.246387012500  0.273824826500  1.634189724800
C   -3.922166821900  1.040779385700  2.750198788700
C   -4.785562096700  2.011430353200  3.221458633200
C   -5.998649135000  2.225672364800  2.586184131100
C   -6.335497173800  1.461754103800  1.482904067100
C   -5.467199337600  0.490465928200  1.009614565200
C   -3.825865543500 -1.837248968800  0.249523285500
C   -2.645618894400  0.293121008700 -1.671697111300
C   -2.033478253400 -0.714144557700 -2.412133682600
C   -2.614915893600 -1.203533930900 -3.566980970500
C   -3.820921660300 -0.685069896600 -4.009555166900
C   -4.433137083000  0.324509171800 -3.287948269900
C   -3.850662044800  0.812009484800 -2.129117181200
H   -2.172886898900  2.895753150300 -0.758202367100
H   -1.861506542800  2.456427854300  0.928009288900
H   -3.461685681400  2.216683475900  0.250856806700
H   -0.887619118400  0.852331736600 -0.664213719400
H    0.354267127000  2.984835321000  1.321020052300
H    1.789720679600  4.293584172800 -0.205359916800
H    3.914018480200 -0.563399146900 -1.764574420800
H    5.207841686800  0.715007038600 -3.395573701100
H    5.019281005200  3.173873349700 -3.498311676800
H    3.456351473700  4.348869042500 -1.994083828400
H    0.696661679000 -3.913812964100  0.240066675900
H    2.966355362500 -4.843000190600  0.618246584900
H    5.329883235000 -4.483939475800  1.083864788300
H    7.225821835700 -2.958031900800  1.478878064300
H    6.876774473800 -0.516296063400  1.399786832900
H    4.678861595800  0.407326798200  0.855984878400
H   -2.930347688300 -1.303128240100  2.094013436400
H   -2.974155849400  0.870456571200  3.242811372400
H   -4.516443395900  2.598288536200  4.087885985700
H   -6.678182670000  2.981205549800  2.952767075100
H   -7.281492745500  1.619644877900  0.984780280800
H   -5.749611229200 -0.092395419400  0.147381523000
H   -3.044854465900 -2.558669266500  0.018104118600
H   -4.643880081700 -2.353247177300  0.747580198400
H   -4.184033241100 -1.416136940800 -0.683518130800
H   -1.093964269200 -1.121292212000 -2.067903127100
H   -2.124045924500 -1.987554031400 -4.125825592200
H   -4.277999152500 -1.063306430600 -4.912490170700
H   -5.372056646000  0.738658589600 -3.627290102100
H   -4.350716814700  1.597124821900 -1.584706673500
