70
-106.10045346
C   -1.508973315000  2.427127737900  0.203104820900
C   -2.737628440700  1.529984554600  0.377361726800
N   -2.547351351400  0.209790973500 -0.198231692800
P   -1.221139709100 -0.819999173400 -0.290863269100
O   -0.365704126700 -0.623122480600  1.119903435400
C    0.679841892000  0.212099869800  1.409600946800
C    1.794911441000  0.355918494900  0.605061400000
C    0.591681307600  0.887842657300  2.645911634500
C    1.576483299900  1.739193763800  3.047095675800
C    2.673345340500  2.012583705200  2.202463412000
C    2.774593688100  1.331567553500  0.961314103800
C    3.827304780500  1.690312439600  0.091205368100
C    4.756206221200  2.626149129600  0.454700040800
C    4.684644943500  3.255118455600  1.706000211200
C    3.656963438000  2.958957605500  2.556850241400
O   -0.246157622800  0.098928461200 -1.291748675400
C    0.958312815300 -0.520279367300 -1.545953616300
C    1.113849255000 -1.216939548600 -2.756285569800
C    2.284427715400 -1.861704158000 -3.027773593500
C    1.970716225400 -0.460042230900 -0.610931028600
C    3.160221374100 -1.212857537500 -0.837594694600
C    3.321652530400 -1.899599240700 -2.070607441000
C    4.505374209000 -2.631329466100 -2.301781822400
C    5.477015954000 -2.717195056700 -1.344506904500
C    5.294097491500 -2.086598445600 -0.105213778300
C    4.165942537300 -1.354406735300  0.142962592400
C   -3.734346477100 -0.436842809300 -0.768574917000
C   -3.304775101700 -1.169019183800 -2.022576187300
C   -2.835998984400 -0.403725571200 -3.087986763400
C   -2.411745298500 -0.998939159500 -4.260727970800
C   -2.455249162500 -2.377618636200 -4.392976890300
C   -2.928478314600 -3.147193052300 -3.345066608800
C   -3.353251042300 -2.549358033300 -2.169982185100
C   -4.459495889000 -1.310868410800  0.251415808700
C   -3.167967210900  1.526181504100  1.833187317300
C   -2.924899790500  0.457637191500  2.682948096400
C   -3.317125434800  0.506981680800  4.010522618200
C   -3.959041920200  1.627848477100  4.506900387800
C   -4.212732289300  2.697983961100  3.664443889400
C   -3.822570640900  2.644716032600  2.338800265400
H   -1.179711171700  2.408709636900 -0.832968857700
H   -0.690935722200  2.099316586400  0.836903869900
H   -1.762149834100  3.449081304000  0.477557900300
H   -3.553198779100  1.997913830200 -0.197255795000
H   -0.280245308800  0.706894518900  3.255998257900
H    1.510209406300  2.238671661900  4.002472646400
H    3.886061420500  1.226789985900 -0.881737373500
H    5.550577846600  2.889905844900 -0.228340098700
H    5.433791192600  3.982612388900  1.982269584000
H    3.571999532600  3.454913390200  3.513371274100
H    0.284040481700 -1.219758653400 -3.446698127300
H    2.419088644900 -2.381189172400 -3.965107527900
H    4.621298358200 -3.135012477900 -3.250902322300
H    6.379481234300 -3.281650667400 -1.528158785600
H    6.050956058500 -2.186354958800  0.659159016700
H    4.030613380100 -0.885458156800  1.105648296800
H   -4.423163608400  0.361815003900 -1.079313086600
H   -2.800718631500  0.671979700600 -2.988305918300
H   -2.048922383500 -0.386378822200 -5.074334772800
H   -2.122472100900 -2.847220038900 -5.307292113900
H   -2.968188135700 -4.222659163100 -3.440443771400
H   -3.717810328600 -3.171182214100 -1.368363916500
H   -5.317031860000 -1.795954943500 -0.208905634000
H   -3.781339940900 -2.064487948400  0.645902782000
H   -4.809013992900 -0.696098136200  1.077830456200
H   -2.430186579400 -0.423376676300  2.302869940900
H   -3.119214691400 -0.335853887700  4.657874220400
H   -4.264875563200  1.666589892300  5.542353627700
H   -4.720244182400  3.574817552900  4.040558624700
H   -4.032310996000  3.480756911900  1.685568957000
