70
-106.10151651
C   -4.148122482400  0.763318100500  2.152149318000
C   -4.026961791800 -0.211879599400  0.982438107900
N   -2.838117491600  0.099301594500  0.184569953200
P   -1.473007150100 -0.737959861800  0.664303077900
O   -0.484487443900  0.394785370400  1.414583368000
C    0.570664908000  1.126193656500  0.963424889800
C    1.546879351000  0.643482121200  0.110758859400
C    0.674481947500  2.422893476000  1.509288560500
C    1.698733391500  3.249210160700  1.162710548500
C    2.623782469500  2.858662814900  0.171810539200
C    2.532520433700  1.554267259100 -0.377891804500
C    3.401862086000  1.219782609800 -1.438591032600
C    4.342267653900  2.105368204500 -1.888849000100
C    4.468909312400  3.371738095400 -1.300849917800
C    3.619771915400  3.740075500600 -0.294967325800
O   -0.729459612000 -0.790377538500 -0.809556159800
C    0.495274957900 -1.427849930800 -0.771675124900
C    0.562193096000 -2.747774301500 -1.249575428100
C    1.744656135500 -3.426213275500 -1.229798551900
C    1.607833482700 -0.775873230500 -0.282796198600
C    2.821316513600 -1.517598749600 -0.143458719200
C    2.891810329200 -2.842555992000 -0.650540449600
C    4.099425924300 -3.563113438000 -0.537704538100
C    5.185303977400 -3.020902523000  0.090079983500
C    5.096722683000 -1.739294824100  0.652123083200
C    3.946740276300 -1.007435125500  0.539444613500
C   -3.039235167400  1.006457974900 -0.946596430200
C   -1.922168735700  2.013646817600 -1.112016742600
C   -0.907902101700  1.877676986600 -2.051010432300
C    0.039423556400  2.873218203500 -2.216821912300
C   -0.016757150200  4.027427234900 -1.457148510600
C   -1.017067827800  4.171140887600 -0.511433210300
C   -1.956499411000  3.171545305600 -0.341450254400
C   -3.338847783900  0.221283856600 -2.227322861100
C   -3.985730462300 -1.667882431000  1.391827239200
C   -3.862099234500 -2.095775796300  2.706338173000
C   -3.823104924600 -3.448232488800  3.005702728300
C   -3.909003541300 -4.392888309200  1.999298969500
C   -4.039215923900 -3.976980411000  0.683990828100
C   -4.080782304600 -2.628477440500  0.387492682400
H   -3.249641502800  0.717308240400  2.763887429700
H   -5.021226148000  0.533350224900  2.758031922700
H   -4.249530965000  1.778063679900  1.772553622800
H   -4.905254732200 -0.086236511900  0.333403582200
H   -0.076710062900  2.722070709600  2.224545433800
H    1.790895174300  4.227087880300  1.612093605400
H    3.305424573000  0.254588066100 -1.912708009000
H    4.991036765000  1.832193428500 -2.708621847600
H    5.225976886300  4.054313105000 -1.658680269500
H    3.685484200900  4.723422581600  0.149225596200
H   -0.343305432200 -3.194361314600 -1.632684460100
H    1.808615436700 -4.430361050800 -1.622160574100
H    4.141671346300 -4.562353895300 -0.947189620100
H    6.106013248100 -3.579299918900  0.174814112000
H    5.944406818500 -1.331466932900  1.183244031900
H    3.888333726800 -0.029851607900  0.992565008200
H   -3.936011497400  1.594260193800 -0.702337597700
H   -0.850637394400  0.993222210400 -2.665010736100
H    0.821844267500  2.748789217400 -2.951723364800
H    0.715185623900  4.808264566400 -1.601011601900
H   -1.070939910000  5.067444884100  0.089651520600
H   -2.739174088900  3.296542913700  0.394492311700
H   -3.447688274000  0.904114778400 -3.067007061200
H   -2.542481613100 -0.485920453600 -2.436509254700
H   -4.268236362300 -0.332610537900 -2.108086680900
H   -3.790184035100 -1.381010937400  3.510026902400
H   -3.723249426400 -3.762732349400  4.034592709400
H   -3.876733852400 -5.446247890000  2.236244966500
H   -4.113285255000 -4.705768382000 -0.110397169300
H   -4.184403236900 -2.308686839400 -0.639308121000
