70
-106.10044567
C   -4.421346789800 -0.090586593500  1.405152614900
C   -3.785058253800 -0.573657442600  0.104488802100
N   -2.546097671800  0.148705784500 -0.206058335800
P   -1.247223544500 -0.556929783600  0.594956402700
O   -0.275741046000  0.687970981000  1.112861150700
C    0.810644123300  1.268438019000  0.515229768700
C    1.855632737600  0.555434286700 -0.042142510600
C    0.844178115300  2.679211786300  0.559712980700
C    1.878494367000  3.370212497100  0.004628363500
C    2.904883798400  2.689762708300 -0.684503088400
C    2.884243691300  1.271260578400 -0.726748417000
C    3.866301446100  0.616079936300 -1.501449009100
C    4.843543785800  1.322178698700 -2.147410827300
C    4.893187294500  2.720550852200 -2.056151513900
C    3.935675025400  3.388790560700 -1.345869787300
O   -0.345752292900 -1.029233026500 -0.731917008800
C    0.820388540500 -1.663064646300 -0.361375923700
C    0.859485343200 -3.067442571200 -0.386149273200
C    1.990396740100 -3.726134954100 -0.002869869600
C    1.908932711200 -0.916241484100  0.038765511500
C    3.059155091800 -1.593641902900  0.539938223800
C    3.103332917400 -3.012684622100  0.492987003500
C    4.249409537200 -3.682214924800  0.970837636000
C    5.295312671100 -2.987620364100  1.510728526400
C    5.228043197200 -1.590369996300  1.611704997500
C    4.139345541600 -0.910513937600  1.139550890300
C   -2.671946672900  1.321011873800 -1.054888530900
C   -3.006874354200  2.600577323300 -0.310174716600
C   -2.694740840900  2.788852535200  1.027878030400
C   -2.998179102500  3.981700734400  1.663014770600
C   -3.618808207500  5.004112906600  0.966874392800
C   -3.939829212500  4.823853404400 -0.368627315100
C   -3.638097371400  3.630672621200 -0.999505641000
C   -1.439660148300  1.544507045300 -1.935477505100
C   -3.474650902400 -2.055533153000  0.075488152600
C   -3.539266543900 -2.883514576100  1.188940107700
C   -3.223292172800 -4.228168029600  1.085669518700
C   -2.844206722600 -4.768734193600 -0.130283431400
C   -2.785500881400 -3.954127165900 -1.249662775200
C   -3.101146913700 -2.612788600300 -1.145242376200
H   -5.318928616100 -0.664740899500  1.622448566700
H   -4.692573412400  0.958565325100  1.312390049900
H   -3.714652241200 -0.191934295800  2.225925023300
H   -4.492840012600 -0.373658383200 -0.712524446600
H    0.024052110800  3.185915935600  1.045471175200
H    1.905520088000  4.448650244400  0.058017591100
H    3.831609867800 -0.458575523200 -1.595039851400
H    5.582193759100  0.801219118100 -2.739125163200
H    5.679071291900  3.261797012900 -2.562319570500
H    3.943847320900  4.468023149600 -1.288431832900
H   -0.025450870100 -3.590717452300 -0.715312543900
H    2.035796389300 -4.804588126900 -0.041058062800
H    4.276391248400 -4.761011854900  0.912297157900
H    6.168404773000 -3.507779298300  1.876670448800
H    6.043202064200 -1.050476332700  2.071140962700
H    4.093269006000  0.163642396700  1.235005949800
H   -3.512909183000  1.115214790300 -1.736638955800
H   -2.217055384800  1.993481343000  1.579825436100
H   -2.748007203700  4.110412112000  2.706785244400
H   -3.855831507300  5.934537904000  1.462198236700
H   -4.430981594600  5.613675482100 -0.918919268400
H   -3.899247777000  3.494576267100 -2.040208100700
H   -1.178100692200  0.623072678500 -2.449997196200
H   -1.655397127500  2.314814259600 -2.673115404200
H   -0.589238858200  1.870495938000 -1.344894690200
H   -3.831617988600 -2.486441536700  2.147613091900
H   -3.273518775100 -4.856362984700  1.963245984000
H   -2.595899828500 -5.817417577300 -0.206948699700
H   -2.495336395600 -4.365615910300 -2.206374883400
H   -3.053882669400 -1.980388293000 -2.020564226600
