70
-106.10592523
C   -2.471625509300  3.033745974200  0.699803763000
C   -1.729573726900  1.728884200000  0.400631181000
N   -2.032490434800  0.646432984300  1.339748688400
P   -0.893394107900 -0.548500825900  1.637689745900
O    0.445753559100  0.279664310500  2.203388575700
C    1.314221161100  1.048434039900  1.473790062100
C    2.050249117800  0.541812771500  0.418805313300
C    1.478591275100  2.386103913800  1.891563888900
C    2.318937103200  3.224172480800  1.222497790500
C    2.994604809000  2.785265874200  0.063046020400
C    2.848503348700  1.435749657700 -0.353797740700
C    3.460532762100  1.041017505000 -1.563436756300
C    4.215088007700  1.919800867700 -2.290835674900
C    4.400454281900  3.237799267100 -1.848813589100
C    3.794665013500  3.661407805800 -0.698993353100
O   -0.398879034200 -0.753051010400  0.062512628100
C    0.752424743700 -1.487094632000 -0.112119374500
C    0.641518158800 -2.829278125400 -0.513238320700
C    1.763133687400 -3.581997670600 -0.702177851700
C    1.981994799500 -0.892809429900  0.082090243400
C    3.157149182800 -1.691711305100 -0.020576621300
C    3.041224235700 -3.045060990200 -0.436417140900
C    4.206363765000 -3.831728709900 -0.553364730800
C    5.434232804500 -3.319696808200 -0.240445719500
C    5.544429762700 -1.999296471100  0.219749967800
C    4.435988954700 -1.205612347900  0.327660895400
C   -3.355805638600  0.481241047800  1.921508911900
C   -4.264576005400 -0.468670394800  1.168263788900
C   -3.792596014600 -1.673623725500  0.670486632400
C   -4.639179510100 -2.547080801100  0.012339455900
C   -5.977971553900 -2.229065883800 -0.146286853400
C   -6.462956017100 -1.034407333300  0.358108457100
C   -5.611129382800 -0.160467288900  1.011112754200
C   -3.246511201900 -0.001973931200  3.372092017300
C   -1.910241308800  1.352525194000 -1.055478682100
C   -0.832965230700  1.461920273000 -1.927281964900
C   -0.962909724000  1.119702367000 -3.260724015400
C   -2.178703144200  0.666415656200 -3.745040378100
C   -3.261929317700  0.571073381500 -2.888849350200
C   -3.130045968200  0.919313066900 -1.555720379000
H   -3.519806567600  2.971984970600  0.417236322100
H   -2.013928752100  3.828445827400  0.114199859600
H   -2.391074021500  3.291192523700  1.753874870300
H   -0.661023005700  1.932439587100  0.540083983900
H    0.919131044600  2.714298785800  2.755157302900
H    2.454251525400  4.243239676000  1.554092421400
H    3.311516497400  0.033746192500 -1.921944151300
H    4.669971792600  1.600828471500 -3.217429921300
H    5.009530094900  3.915147763500 -2.429315969700
H    3.908322239200  4.681175397800 -0.359371004400
H   -0.347543660500 -3.231680129700 -0.673828520800
H    1.685375704300 -4.608050983400 -1.030623832900
H    4.104650030200 -4.855202299800 -0.885315328200
H    6.321458084200 -3.929236360900 -0.330007603000
H    6.514383269800 -1.611355227100  0.494953824600
H    4.531469518800 -0.195398682200  0.695831702900
H   -3.831995945300  1.465387015600  1.938576513800
H   -2.746683029600 -1.920475411600  0.791210490400
H   -4.254776581600 -3.479313568400 -0.376052099500
H   -6.640577411200 -2.910172965400 -0.660142498800
H   -7.506545614500 -0.780380061200  0.240390383900
H   -5.995825016000  0.773072529500  1.399569601100
H   -4.215303854700  0.075986104300  3.860773521300
H   -2.924611188900 -1.039581244700  3.405664336600
H   -2.522556456200  0.604742940500  3.911760297000
H    0.122400252700  1.808239656400 -1.555420116000
H   -0.111081122200  1.203921522100 -3.920844592700
H   -2.280636614100  0.390944079200 -4.784977738300
H   -4.216844804200  0.223617509300 -3.257202471400
H   -3.983234793800  0.839091191400 -0.900464085100
