70
-106.09955723
C   -3.143497978200  0.313612007500 -1.943172267600
C   -2.632076391500 -0.640638857100 -0.866188171900
N   -1.907960234800  0.070625668800  0.194689923300
P   -0.765519748300 -0.867373019400  1.075766354300
O    0.296755751900  0.287067389700  1.602843305200
C    1.132730898400  1.021835030000  0.790612167700
C    2.118941845000  0.420043981200  0.034339273700
C    1.001784576100  2.421939354400  0.826408841200
C    1.808741510800  3.210770290100  0.059386931000
C    2.747143407000  2.634872412600 -0.822135058500
C    2.899868693700  1.223078240000 -0.845207032700
C    3.798261729700  0.661642174100 -1.778851187500
C    4.535126805700  1.457145585900 -2.612006196900
C    4.414663081200  2.853868467900 -2.556658776600
C    3.533469327300  3.428041571700 -1.684158230100
O    0.029853911400 -1.393862382200 -0.280584246000
C    1.291309134400 -1.901662412100 -0.036256039200
C    1.467236955900 -3.294266968400 -0.004189563000
C    2.705875046900 -3.819916532900  0.224643608600
C    2.348261044200 -1.035113388300  0.144529237300
C    3.627028506600 -1.567758241000  0.472458093700
C    3.805540771600 -2.977349347700  0.491626024100
C    5.076816525200 -3.505778545400  0.801179814800
C    6.121999048300 -2.682922114100  1.113622742000
C    5.933865000300 -1.292915292200  1.144360687600
C    4.719214842700 -0.748300858900  0.832060248100
C   -2.614669617300  0.995827545300  1.085962807600
C   -3.003760624800  2.270724152900  0.363113842100
C   -4.240896064000  2.882593584000  0.521058444200
C   -4.526811471800  4.074090887300 -0.127033745700
C   -3.582689932100  4.676436610800 -0.938657624900
C   -2.344104965700  4.076937706800 -1.099886736000
C   -2.060533237100  2.889448456600 -0.453242136400
C   -3.745722470800  0.365274686300  1.899989098700
C   -3.690921406300 -1.607926076200 -0.368592988500
C   -3.274098569000 -2.730489410100  0.338293700000
C   -4.181769506800 -3.656678702100  0.817251858700
C   -5.535316623800 -3.482325210400  0.581572586900
C   -5.963567553500 -2.379835308500 -0.136601965500
C   -5.050800588200 -1.450917831900 -0.609026796900
H   -3.908973338600  0.984031489300 -1.565080855900
H   -3.552049462700 -0.267878474100 -2.767396905600
H   -2.319539733100  0.915361391600 -2.317613667100
H   -1.858890533100 -1.256860731100 -1.340882629600
H    0.259565609100  2.848401752300  1.484628479600
H    1.716994885900  4.286177358100  0.100635382600
H    3.888992085500 -0.412408329700 -1.839001742700
H    5.213891031400  1.010165172700 -3.323710074300
H    5.012088737800  3.467063295100 -3.215353601700
H    3.415371768100  4.501640035600 -1.646060500300
H    0.606091562700 -3.923939761000 -0.172401333600
H    2.852639501300 -4.889874334400  0.232218657900
H    5.202496318100 -4.579082093300  0.797384294400
H    7.091380589800 -3.095063519800  1.352509761700
H    6.757238614600 -0.651201794200  1.422075003500
H    4.582010450600  0.321501592600  0.871274908100
H   -1.843758065400  1.290490854200  1.816447325000
H   -4.997852264100  2.438351243100  1.147725467700
H   -5.496133234700  4.532943418300  0.007406783600
H   -3.808676358200  5.605909361300 -1.440758457700
H   -1.596169796300  4.536288378700 -1.730287991700
H   -1.096433855900  2.421629905700 -0.585176319300
H   -4.619885587500  0.158289406800  1.290728207800
H   -3.394711503800 -0.572529899600  2.328294886700
H   -4.024835286100  1.029537601800  2.715299678700
H   -2.215988693400 -2.878238740400  0.512551860800
H   -3.832265682600 -4.518168818400  1.367809699800
H   -6.249553892600 -4.203981803600  0.950109325300
H   -7.017093416800 -2.238767349300 -0.332152047400
H   -5.413307458800 -0.599405675600 -1.163763888700
