70
-106.10842386
C   -3.074832056200 -0.348621728800  3.143130208000
C   -3.167501298500  0.215416307400  1.724489364400
N   -1.842803925000  0.436140186700  1.162395556600
P   -0.664618650200 -0.722077605700  1.437345933000
O    0.615119740200  0.119920491400  2.111983198200
C    1.484593768500  0.967103321800  1.479918102500
C    2.280963409600  0.562422123300  0.424547670900
C    1.598570123500  2.268647536900  2.008074492000
C    2.436678953700  3.179536303500  1.437183286700
C    3.164979617300  2.851602111100  0.273903839000
C    3.082173519900  1.532474234600 -0.244890964200
C    3.766184212200  1.242929530500 -1.445735525700
C    4.526313531200  2.192972764100 -2.070210968200
C    4.644178092800  3.481710647400 -1.529307604300
C    3.970146065600  3.803861858100 -0.384780815100
O   -0.089858791500 -0.812541157200 -0.123915184100
C    1.101715488100 -1.489972998300 -0.274606677900
C    1.066952801100 -2.814698640100 -0.741061872400
C    2.228867798700 -3.507310325000 -0.916305351600
C    2.291986959800 -0.852109116100  0.004276632500
C    3.505239417600 -1.594407905600 -0.082498347900
C    3.468506678600 -2.928282090300 -0.570008944400
C    4.672071136900 -3.656873804700 -0.674588731600
C    5.860841427500 -3.109780454300 -0.280904665400
C    5.890966783700 -1.812525015300  0.251684442600
C    4.744343335400 -1.073671850200  0.349165239000
C   -1.715275256500  1.530277273600  0.197110401100
C   -2.772799425800  1.407319028500 -0.880539352400
C   -3.877271044300  2.244602548000 -0.960486877300
C   -4.833649318000  2.058393121000 -1.944892753600
C   -4.702988003600  1.032022982800 -2.862254231200
C   -3.602202026600  0.194565225100 -2.795255018100
C   -2.647410085900  0.384621445200 -1.815097959600
C   -1.698074082400  2.887401899400  0.902946669200
C   -4.032779957100 -0.690820808400  0.873523425300
C   -5.345286727800 -0.343334149500  0.584934993100
C   -6.144838990300 -1.179359219000 -0.174250083300
C   -5.641051506500 -2.375971434600 -0.653212451800
C   -4.335201903000 -2.734511772600 -0.363062017300
C   -3.541349292700 -1.897461170600  0.398634964700
H   -2.741057721300 -1.382727779900  3.123276750000
H   -4.052266191800 -0.309792616400  3.619191697300
H   -2.367170524900  0.235231601700  3.728081274900
H   -3.657873713300  1.193992931900  1.780617991100
H    1.020690735000  2.505773240500  2.889560875000
H    2.534770143800  4.170579394100  1.855652202800
H    3.671801412000  0.258712055200 -1.879341019800
H    5.038195402100  1.954005501000 -2.991102767900
H    5.257618722600  4.216542642300 -2.029838645200
H    4.033921020700  4.799569702800  0.030741860600
H    0.104977702500 -3.253441988600 -0.960795191700
H    2.211666843300 -4.518623477900 -1.295112578000
H    4.631048934800 -4.664736983100 -1.062529403800
H    6.777823917300 -3.674878423100 -0.361665855600
H    6.829330774000 -1.398780730900  0.591182523100
H    4.778204147000 -0.081814677200  0.773407910400
H   -0.738848570200  1.400328052700 -0.284706002200
H   -4.004944192500  3.053640533300 -0.258076867600
H   -5.687448227300  2.719476515000 -1.991266303200
H   -5.452654482100  0.885483975500 -3.626195050300
H   -3.487532301600 -0.608271047400 -3.509394205400
H   -1.790636643000 -0.270744711900 -1.762171511600
H   -1.605270747600  3.682268381900  0.166538257800
H   -2.597125530900  3.050927399600  1.491497328300
H   -0.842811615100  2.933619830700  1.571191652200
H   -5.744813109900  0.591221499900  0.952890053200
H   -7.162956285800 -0.893219461300 -0.395441774600
H   -6.262847076100 -3.027412299100 -1.249943148100
H   -3.936341924700 -3.669426983300 -0.730123083100
H   -2.519983754400 -2.176333709600  0.622897037200
