70
-106.09985516
C   -1.355529060500  2.290154835300 -0.141636877000
C   -2.622727715500  1.442506066800 -0.066840932900
N   -2.387713372200  0.002851618200 -0.032927253400
P   -1.018370793300 -0.957878058600  0.005634385300
O   -0.151260324700 -0.445905363900  1.336986629400
C    0.884965763100  0.439176692700  1.437783248600
C    1.966319278900  0.467278358600  0.576760215400
C    0.827782745900  1.313846933500  2.544855824300
C    1.798082034400  2.246929833400  2.751391099600
C    2.847702239000  2.402645080600  1.821523613800
C    2.923974979500  1.517786822600  0.714586634200
C    3.928441490200  1.749001162400 -0.250604595300
C    4.836765929000  2.760063913500 -0.097005406100
C    4.792285723400  3.595777376400  1.028073576300
C    3.809800648800  3.423794603600  1.962400049800
O   -0.115599492300 -0.217383887300 -1.186443313900
C    1.115084751200 -0.816143797100 -1.360456136200
C    1.286274258200 -1.694608699100 -2.443798513200
C    2.482095171100 -2.322056951600 -2.633575389100
C    2.140761155300 -0.548887424600 -0.477809240800
C    3.359514956200 -1.279823852200 -0.602557810100
C    3.533566727600 -2.156858115900 -1.706091634700
C    4.746316432200 -2.865021496500 -1.839363895100
C    5.735554986000 -2.746704857400 -0.903850639300
C    5.542340913800 -1.925820819200  0.216716004800
C    4.385548591300 -1.211364190100  0.364630867500
C   -3.603931125100 -0.813526817000 -0.200268091100
C   -3.443473739400 -1.677094431300 -1.431989820600
C   -3.047492121500 -3.007839971800 -1.374198538600
C   -2.869615452300 -3.741890678100 -2.534767743300
C   -3.080047748700 -3.158330640400 -3.772148538400
C   -3.474084947500 -1.832701020300 -3.842235441900
C   -3.656801570600 -1.103344336400 -2.681273537000
C   -3.924862395900 -1.598825074000  1.069019658600
C   -3.425435896000  1.876531636200  1.142821672300
C   -3.069854854100  1.436491964600  2.410996595900
C   -3.775575631600  1.852827633900  3.525138302400
C   -4.849549606900  2.716456645300  3.383063252600
C   -5.212619447200  3.158290340600  2.122293118300
C   -4.504131993100  2.739718843900  1.008606456200
H   -0.752209201400  2.170413058500  0.753173277400
H   -1.641221291700  3.338074627500 -0.220342145900
H   -0.764342660800  2.022680858300 -1.012660922200
H   -3.211140958000  1.659735936000 -0.973040390400
H   -0.003344842400  1.210918043600  3.226282924400
H    1.756241595700  2.897927730000  3.612243419600
H    3.965841985200  1.125531821400 -1.130889069700
H    5.593438274600  2.922845428100 -0.850753275500
H    5.525333254200  4.381182604500  1.140123062400
H    3.744663784400  4.076771619300  2.821204008600
H    0.451748539800 -1.843613508000 -3.111888080000
H    2.627822202100 -2.979439878800 -3.478018378000
H    4.870722097900 -3.515286536600 -2.693526440000
H    6.660514978400 -3.294029729300 -1.011553600000
H    6.314226045000 -1.863644194900  0.969915094400
H    4.243434084000 -0.594318921300  1.238684262800
H   -4.432850900400 -0.119599256800 -0.383407797200
H   -2.880151996700 -3.483081915400 -0.420942482000
H   -2.562761403300 -4.775887001600 -2.470304484700
H   -2.938928083800 -3.732271880200 -4.676547664200
H   -3.643067263600 -1.366580179700 -4.802561009500
H   -3.970060452800 -0.070358681200 -2.745093158800
H   -4.744835228200 -2.289431120100  0.886053350000
H   -3.049441486000 -2.152065355300  1.401328485800
H   -4.213854938600 -0.910849879700  1.860025960700
H   -2.241248565100  0.751068834000  2.512771172900
H   -3.489836016300  1.501794714300  4.506675229100
H   -5.402943200500  3.041873287700  4.251963915400
H   -6.051442769000  3.829232916700  2.004382152700
H   -4.791849526500  3.088617429400  0.025902264200
