70
-106.10207558
C   -3.435914452100 -1.838921377700  1.538710428800
C   -3.043691203800 -0.650173038000  0.659876697600
N   -2.062083654100  0.236946652400  1.292821486700
P   -0.772692257300 -0.528938303500  2.132086258200
O    0.409362731200  0.624741217200  2.071213451100
C    0.959837307000  1.089683474600  0.894661622200
C    1.674441275500  0.263217795500  0.050945037200
C    0.841764714500  2.465046556800  0.626848788900
C    1.354739978600  2.993588463300 -0.522129596200
C    1.965303605500  2.160526507600 -1.482289871100
C    2.126722735000  0.778922634700 -1.196538843600
C    2.691668167600 -0.049429719100 -2.190500507700
C    3.105898891400  0.469209822600 -3.385941533900
C    2.982853644700  1.841729326000 -3.649775180100
C    2.419039298500  2.667366683300 -2.718205847800
O   -0.354833820900 -1.470017761600  0.840052509900
C    0.930282396300 -1.958477206300  0.821742181600
C    1.151098772500 -3.307408782300  1.145408983800
C    2.415623446400 -3.819634637700  1.113755946800
C    1.966957836200 -1.129018840500  0.449039385700
C    3.300294554300 -1.624964697700  0.496249835400
C    3.518824541100 -2.992543121400  0.814830076700
C    4.838940124500 -3.489783238200  0.846806860100
C    5.904748639000 -2.668709864000  0.607948823300
C    5.693362001300 -1.307670137000  0.341042742200
C    4.425715578300 -0.798143111400  0.286379861200
C   -2.581417806400  1.417682783400  1.991324481400
C   -3.339718833200  2.291918541800  1.012130742200
C   -2.619226516800  3.002922036100  0.056929682100
C   -3.258625142400  3.797039515500 -0.877407552600
C   -4.639804476700  3.896912562800 -0.873504789700
C   -5.368306484400  3.197033110200  0.071445505600
C   -4.725201065200  2.400617686500  1.005289533600
C   -3.366469667200  1.110950397400  3.269171174900
C   -2.518078017100 -1.062147304700 -0.704594471300
C   -2.509340748300 -2.373734989800 -1.160289811100
C   -1.997145998300 -2.684913277200 -2.409437359700
C   -1.493076526900 -1.692009193000 -3.229452215000
C   -1.516020229000 -0.377646443600 -2.793861026400
C   -2.024920384800 -0.070463563900 -1.546716494100
H   -3.745958152200 -1.496888900200  2.522000029300
H   -2.586317169000 -2.506225453700  1.664314229700
H   -4.261635144900 -2.385882463800  1.088595767700
H   -3.939283192500 -0.038580012600  0.482625223300
H    0.361206797600  3.087578045700  1.367843607300
H    1.276237970600  4.053120832200 -0.718814595300
H    2.775435500800 -1.109259637400 -2.003265767500
H    3.528001989500 -0.180567624200 -4.138749709300
H    3.324671487100  2.235663866700 -4.595823453500
H    2.300305374800  3.723117808600 -2.917151068600
H    0.299841951900 -3.916755545600  1.409410910900
H    2.590215984000 -4.860250413600  1.344713529100
H    4.989427121700 -4.534995465600  1.076660700400
H    6.912589974000 -3.056185455000  0.637094759900
H    6.542689398700 -0.659188490000  0.182496855400
H    4.275789063500  0.253106251700  0.093087696000
H   -1.684133596500  1.971988480300  2.298818506300
H   -1.541822275800  2.927848507600  0.048056545300
H   -2.676418918100  4.338510868100 -1.609201850800
H   -5.143751393500  4.516987263300 -1.600418067200
H   -6.446551848500  3.268099548900  0.084764965300
H   -5.321934151000  1.870082962000  1.730973050700
H   -3.651047414700  2.042782514100  3.753881604400
H   -4.264511219300  0.534323721100  3.067724409300
H   -2.732227897900  0.542857591700  3.948323264200
H   -2.889787736200 -3.174480500700 -0.546271103100
H   -1.989978876800 -3.714313306600 -2.740225139200
H   -1.087402451100 -1.938455158000 -4.200288679800
H   -1.131396630600  0.410448970900 -3.426108545500
H   -2.034750254100  0.954501521500 -1.209202721200
