70
-106.10094929
C   -2.355200715200  2.138488854900 -0.159417664900
C   -1.950125929200  0.700250169700 -0.488382433800
N   -2.014575802800 -0.172884390400  0.682690741900
P   -0.647959815600 -0.798223912700  1.419911911400
O    0.363038915300  0.501514686300  1.660910566500
C    1.201654386300  1.109154369500  0.759260792700
C    2.175067782600  0.425018772400  0.055312452800
C    1.080687229600  2.508120846200  0.640165993500
C    1.865644803200  3.204122005800 -0.229300554200
C    2.777973672700  2.529269551800 -1.067789611900
C    2.928146320700  1.124163098600 -0.933786131500
C    3.790935012600  0.457144879400 -1.830686445900
C    4.500893893700  1.149792544800 -2.772361741400
C    4.387813222800  2.544383331400 -2.868859415100
C    3.536688421600  3.216995465000 -2.037492526800
O    0.088923396400 -1.421469407600  0.054847292400
C    1.366417356500 -1.893363037100  0.268563567700
C    1.558217974700 -3.275826018700  0.428510625000
C    2.811381485800 -3.769316501000  0.644283547600
C    2.421236547600 -1.006864212500  0.310103271000
C    3.719954586700 -1.497867583700  0.629849075100
C    3.913785545100 -2.897540039200  0.776327023100
C    5.202676610100 -3.386118606900  1.076882139700
C    6.252523757400 -2.530980725900  1.262021091500
C    6.050896512900 -1.145940232400  1.170322091100
C    4.817584887000 -0.641374276400  0.862864459700
C   -3.265077440900 -0.666478230800  1.256042557600
C   -4.195316143600  0.455168584500  1.661340718800
C   -3.796464205400  1.283137858700  2.707240507000
C   -4.596355649300  2.326391547100  3.133271358600
C   -5.819581410400  2.554112403500  2.522657933000
C   -6.230330870200  1.730869701600  1.489269922300
C   -5.425614163300  0.686659067700  1.061073707500
C   -3.918893905200 -1.762583406700  0.414316292000
C   -2.668474413100  0.127485499800 -1.693281728300
C   -3.854975449500  0.651260432600 -2.191923170500
C   -4.465360978900  0.084293841400 -3.299128898300
C   -3.900280655400 -1.011475419400 -3.927342502600
C   -2.713160231000 -1.536442823600 -3.443398314300
C   -2.103685999000 -0.967763677500 -2.340526185300
H   -3.411885433400  2.224028920900  0.069151218600
H   -2.116100358300  2.783054692900 -1.002938928500
H   -1.798799614800  2.476926183300  0.710284081000
H   -0.883415443600  0.723281731400 -0.753343668100
H    0.360116113000  3.007171419300  1.269922836400
H    1.779527475300  4.278184974600 -0.303316473500
H    3.875818442200 -0.617657535900 -1.777225753700
H    5.151596300900  0.620630824600 -3.453275311800
H    4.964447419800  3.076677316800 -3.611083473300
H    3.421091995600  4.288668327900 -2.116114774200
H    0.693919921000 -3.920505299900  0.369666033300
H    2.970628904900 -4.832558737500  0.747635408000
H    5.339065187100 -4.454120592400  1.170079989900
H    7.235852466100 -2.912664702100  1.494563875700
H    6.878444410600 -0.475096927100  1.349438188800
H    4.671250261400  0.426611617800  0.808199412000
H   -2.942323238500 -1.149927935500  2.192225125500
H   -2.840618174200  1.101854595000  3.180690814600
H   -4.269785210400  2.959886400200  3.945428120600
H   -6.449611243000  3.366625712700  2.854126252400
H   -7.184611646400  1.899471695000  1.010838117700
H   -5.764553189700  0.058883038000  0.252347965600
H   -4.744133310000 -2.202334538100  0.970247257700
H   -4.286570929800 -1.388010198600 -0.534688260300
H   -3.181356145600 -2.536204227100  0.210837721300
H   -4.319181506000  1.502653209900 -1.720163160100
H   -5.389056566700  0.504139808300 -3.671649856000
H   -4.379096685500 -1.451586015600 -4.790072257800
H   -2.258867047700 -2.388005587500 -3.929657494100
H   -1.178655339600 -1.379341980100 -1.964356711000
