70
-106.09981413
C   -3.869351074100 -0.158890224800  2.033727818500
C   -3.613425353900 -0.420661128200  0.552054032400
N   -2.359876606100  0.220444507800  0.110498766900
P   -1.026485356800 -0.559068776000  0.754774313400
O   -0.037277458000  0.664681423000  1.300969739100
C    1.044191919600  1.263010500300  0.718448237000
C    2.048002164200  0.579622764200  0.057810128500
C    1.120807003100  2.662577123100  0.888603227800
C    2.146861818800  3.378572022800  0.350805434900
C    3.119137185300  2.740639468900 -0.448351360100
C    3.060287207500  1.332175226600 -0.612334288900
C    3.987149828800  0.727740487500 -1.489532011900
C    4.949502618300  1.467473568900 -2.120131183800
C    5.039784853600  2.850742647100 -1.909206884400
C    4.134907326300  3.473446485200 -1.095957228400
O   -0.204788193800 -0.948491475400 -0.646728000500
C    0.978316044500 -1.608025562500 -0.384708272200
C    1.012963692400 -3.004939240600 -0.531905109000
C    2.157770241900 -3.692885839400 -0.256772565100
C    2.086633127800 -0.894636743800  0.021705595500
C    3.255475625900 -1.612287682400  0.414306269400
C    3.292541303300 -3.022654242400  0.249623777400
C    4.455400130900 -3.729763060000  0.620831635900
C    5.526643170600 -3.082194697300  1.169332800400
C    5.469322925200 -1.697869123900  1.386468849900
C    4.363773818200 -0.981201051500  1.019497042700
C   -2.542533664200  1.209847915800 -0.947373196000
C   -3.330124690900  2.388222895100 -0.411951677900
C   -2.958472437300  2.981373764300  0.787815622200
C   -3.649967989900  4.074565088900  1.276657739900
C   -4.724688624000  4.588569942000  0.569010874700
C   -5.102592951500  4.002792960800 -0.626957399300
C   -4.408583848800  2.907832120400 -1.114058026500
C   -1.247775939900  1.731474700200 -1.563986516600
C   -3.566932410000 -1.886657190600  0.183466819100
C   -3.904042137200 -2.264263672200 -1.112070616500
C   -3.804985653500 -3.582536170100 -1.519947956400
C   -3.373707892200 -4.551827405800 -0.630375402900
C   -3.046674052700 -4.190319908900  0.665316327400
C   -3.140464724400 -2.869318681100  1.069141171300
H   -4.723257491200 -0.739317384100  2.375390152000
H   -4.077423087400  0.897875179100  2.184236348100
H   -2.993151315800 -0.420129417500  2.622207604100
H   -4.427976938500  0.044851818800 -0.014788487900
H    0.345829983300  3.141352067800  1.468813542700
H    2.208766047200  4.446005696900  0.503686541700
H    3.920586537700 -0.333412853400 -1.675610555000
H    5.644538492700  0.985487593500 -2.792296749800
H    5.814146675200  3.417792436100 -2.404777395400
H    4.173729663300  4.542910171100 -0.944676883400
H    0.115359155700 -3.500005934800 -0.870435061800
H    2.199103836500 -4.763822403300 -0.390432864200
H    4.475100351200 -4.800192623200  0.473471552500
H    6.412517502100 -3.630999805900  1.453520625900
H    6.305662246200 -1.197546857300  1.852510165500
H    4.326661427100  0.081374316400  1.205023993600
H   -3.120243727400  0.735019620200 -1.756828434600
H   -2.128021789900  2.566187208500  1.340572894200
H   -3.352570237700  4.526621146000  2.212275234000
H   -5.266997100400  5.441752303700  0.949931996300
H   -5.941555561700  4.397327539000 -1.182089086700
H   -4.707614885500  2.454115096600 -2.049488703600
H   -0.652714435200  0.915251947900 -1.962899444000
H   -1.498994178400  2.410154872900 -2.377817805900
H   -0.662110264100  2.281229918600 -0.833465823000
H   -4.248412581500 -1.515471391000 -1.812199606100
H   -4.067581473900 -3.853267757000 -2.532760963400
H   -3.295547222800 -5.582511224600 -0.944920686300
H   -2.713179631000 -4.940610752700  1.367734955100
H   -2.884869698100 -2.610293919200  2.084192774700
