70
-106.10227222
C   -3.738922983300 -2.029483307400  2.473765409900
C   -2.978522648600 -0.773463190700  2.040157699700
N   -2.140895229400 -0.949814572300  0.847494690500
P   -0.754344230600 -1.897028530800  1.192349571900
O    0.221334921100 -0.814840159400  1.986983925500
C    0.703536104000  0.338308925500  1.407778211900
C    1.562803344100  0.306175896800  0.327759100700
C    0.352903565300  1.558148414800  2.011833700600
C    0.781346890900  2.741583357800  1.486051671300
C    1.543622474100  2.761722280200  0.299774825300
C    1.936838539000  1.531804449600 -0.290664173600
C    2.654047361600  1.570835747500 -1.505744888800
C    2.997168249300  2.762266483800 -2.081877271500
C    2.643986230200  3.976695826900 -1.474749946600
C    1.926986181300  3.973987638700 -0.311407872900
O   -0.142892305300 -1.791952018500 -0.334793257600
C    1.210261971700 -1.997144243500 -0.478684244000
C    1.658837531800 -3.222912403300 -0.997333354700
C    2.993985800500 -3.440709425200 -1.177386472200
C    2.089642927900 -0.985506833300 -0.157152887100
C    3.488566678700 -1.229485166700 -0.257002957700
C    3.938941565400 -2.466261706200 -0.792890265000
C    5.325230019200 -2.702895375100 -0.908458284500
C    6.233944557000 -1.775079301600 -0.483654640300
C    5.791056056600 -0.574225229700  0.090914848400
C    4.454621230300 -0.307430810200  0.202035035700
C   -2.810269272000 -1.072351076800 -0.448261077400
C   -2.037929873700 -0.258748698800 -1.471802281200
C   -1.687031515100 -0.735897187600 -2.727486770700
C   -0.971366970900  0.057107385800 -3.609604945800
C   -0.602523694000  1.342706395400 -3.257961199000
C   -0.959988644700  1.834152286000 -2.013874386000
C   -1.670658564400  1.040373434700 -1.134520180100
C   -3.059092620800 -2.519765385800 -0.876689777700
C   -3.873668347700  0.437539478200  1.869117538200
C   -3.317539910600  1.706525016700  1.992519964100
C   -4.081392161400  2.845593024200  1.815072245800
C   -5.428071975400  2.736277226200  1.512562314200
C   -5.996535102100  1.480841521900  1.391569676000
C   -5.227344021100  0.341972267700  1.566353662500
H   -4.456297617900 -2.350246942800  1.724600033700
H   -4.269892301500 -1.831156938300  3.402604182400
H   -3.028053774100 -2.836968112100  2.641208583200
H   -2.261626129700 -0.544263092500  2.842838987000
H   -0.234539729200  1.521097174000  2.917613393900
H    0.524123922900  3.677129769500  1.961533112000
H    2.915913123300  0.641661622900 -1.988853265500
H    3.540055375600  2.773646909900 -3.015889350200
H    2.931425421700  4.908808555200 -1.939186851000
H    1.630627932800  4.902966875500  0.155265535200
H    0.923804532800 -3.972456567200 -1.249918728000
H    3.344985395100 -4.374303504000 -1.591936316300
H    5.653235066900 -3.641934042200 -1.331019297700
H    7.293589496100 -1.964621161800 -0.572973098100
H    6.515661575400  0.141206673200  0.451625444600
H    4.125530892600  0.613962730500  0.657658260000
H   -3.785524083900 -0.579975859400 -0.328972062000
H   -1.954677416200 -1.735337063300 -3.031542784200
H   -0.699619435400 -0.337045764600 -4.579094964800
H   -0.040851088400  1.957953755600 -3.945841507900
H   -0.681429626500  2.837883989800 -1.727199057300
H   -1.942648611900  1.426629639900 -0.163833267600
H   -3.682209061200 -2.545100705200 -1.768145329000
H   -2.116693405300 -3.020278981800 -1.080455787900
H   -3.568859722300 -3.063952503800 -0.086873096800
H   -2.268865449200  1.799166162200  2.229384903600
H   -3.624079178300  3.819457540400  1.914992758900
H   -6.029806979100  3.622661036300  1.374669827300
H   -7.047043226600  1.383035176100  1.157808727900
H   -5.701305109600 -0.622119148200  1.466369453100
