70
-106.10623437
C   -1.967068570200  3.048221676100  1.048643996800
C   -1.818353165100  1.775359108200  0.214218498600
N   -2.033060704500  0.569681672700  1.010462047400
P   -0.915890010000 -0.651924818900  1.243303856100
O    0.387023495100  0.077450390700  1.999593688600
C    1.281631645500  0.944657834000  1.429678793200
C    2.088961091800  0.585131985500  0.365833122400
C    1.403566137700  2.213990053200  2.028694546900
C    2.271287579000  3.138413572200  1.528727217400
C    3.023946727400  2.859215818500  0.368253758900
C    2.924752474100  1.574533417500 -0.228764583800
C    3.629249130500  1.340797981500 -1.430090975100
C    4.425765433600  2.307294716400 -1.979406284700
C    4.561023447700  3.558320030600 -1.359648814500
C    3.866538230700  3.828801831100 -0.214047341000
O   -0.308284192100 -0.663431022200 -0.304941154400
C    0.858089011100 -1.377444284000 -0.477238632400
C    0.783411412100 -2.670168778400 -1.021725680500
C    1.924094248500 -3.389818004700 -1.226338156000
C    2.065518209500 -0.800075970500 -0.143724736500
C    3.254491855500 -1.575550970800 -0.264390375100
C    3.178686539600 -2.874420445300 -0.835159558700
C    4.359172655700 -3.634051399400 -0.976128463700
C    5.561345159300 -3.151962162200 -0.540244852700
C    5.628551191800 -1.892510748400  0.073547583800
C    4.505459973800 -1.124107317400  0.209116344600
C   -3.348303591500  0.293538391400  1.587103280600
C   -3.719294501100 -1.134709436500  1.246913033200
C   -3.970437848600 -1.442387066000 -0.087601016100
C   -4.274321301300 -2.733458722200 -0.475923155000
C   -4.338130442900 -3.745147924500  0.468316416000
C   -4.097536398900 -3.449633335900  1.798159178900
C   -3.790849189700 -2.155521218700  2.185940500200
C   -3.352179275200  0.589374307100  3.086372276800
C   -2.694781647300  1.765494432800 -1.022997020800
C   -3.939495609100  2.383234950600 -1.071360326100
C   -4.727060405100  2.301302923700 -2.208331181200
C   -4.283187545900  1.604510741400 -3.318094595500
C   -3.040570750900  0.993193180700 -3.285847140900
C   -2.256991903200  1.074838072100 -2.149060882000
H   -1.764523174400  3.915835285600  0.424220615800
H   -1.251113786000  3.032589642500  1.865889506300
H   -2.964794084100  3.142437540600  1.467129650600
H   -0.776570437700  1.719676561500 -0.123682566300
H    0.802805722200  2.415721232800  2.903190321900
H    2.375087828800  4.104073377300  2.001550569400
H    3.522446187100  0.386644563100 -1.923703239100
H    4.953638213400  2.110915602700 -2.901321269500
H    5.203791491800  4.305978535000 -1.800851682900
H    3.943013989400  4.796329409600  0.261547938100
H   -0.192139262100 -3.059680084900 -1.272358383700
H    1.878025607100 -4.375878591100 -1.664688226000
H    4.289379148400 -4.613609355500 -1.427293920300
H    6.460357645700 -3.740522953800 -0.650226582300
H    6.576707211700 -1.531889881400  0.444933296700
H    4.566961455900 -0.162231189200  0.694888189700
H   -4.070970991500  0.950226502300  1.089268271500
H   -3.922401793000 -0.657109505500 -0.827943351100
H   -4.464284662100 -2.949136695900 -1.517793944600
H   -4.575137672300 -4.755743473900  0.168743264100
H   -4.146318279300 -4.231298216300  2.542644436800
H   -3.606072669400 -1.954415215400  3.228760577900
H   -4.310957262600  0.323022037400  3.525152625000
H   -2.556538099900  0.027643371100  3.572037138500
H   -3.172095875100  1.646853994300  3.260193134000
H   -4.308839240100  2.944357072100 -0.226400831600
H   -5.693136636600  2.785387110600 -2.224205907500
H   -4.899499576900  1.540064114000 -4.203061805000
H   -2.680381047800  0.450360425100 -4.148161619500
H   -1.293689444000  0.587216029400 -2.125471205500
