70
-106.10077498
C   -3.363389972000 -1.753861655900  2.298515613100
C   -3.566122507200 -0.870152172800  1.072262173500
N   -2.331461764900 -0.252167589500  0.598564965800
P   -0.882363053100 -0.733433055500  1.291395478200
O    0.018604038900  0.651469764900  1.407936364600
C    0.900235094200  1.214362563600  0.524922155400
C    1.906388819800  0.510695720900 -0.111382629000
C    0.779521836300  2.609426749700  0.351970064300
C    1.597008598700  3.278891864200 -0.507380826600
C    2.543317829300  2.579598903900 -1.286601763000
C    2.691679592300  1.180790598400 -1.098037874200
C    3.582969738100  0.486957493200 -1.945361301300
C    4.321975881000  1.148952990700 -2.886895945800
C    4.211495962600  2.539093605100 -3.033545258100
C    3.332330053200  3.236452482200 -2.253274537300
O   -0.152456029000 -1.392830190800 -0.075448841500
C    1.133026754700 -1.821344680900  0.153446428000
C    1.361525174800 -3.195529515100  0.344224100000
C    2.621661704900 -3.652902533900  0.593724257100
C    2.165960667600 -0.907682987100  0.196968367000
C    3.468504256600 -1.359068582100  0.560112512200
C    3.696909677100 -2.749741533600  0.737375505200
C    4.989762256200 -3.198065403900  1.079942563500
C    6.010934217300 -2.311804744800  1.278536279700
C    5.773597121100 -0.934652083400  1.159244018100
C    4.535946068000 -0.469511012500  0.809813641800
C   -2.560542139400  0.798111511600 -0.388383755700
C   -2.545768982300  2.186016066400  0.230452007300
C   -2.524085588400  2.366354091400  1.607570969000
C   -2.540167128600  3.635563975000  2.160921736200
C   -2.586154958800  4.751444449300  1.343767740300
C   -2.624854165000  4.584272253600 -0.030466520600
C   -2.610737384500  3.314945584200 -0.580487991900
C   -1.628993300900  0.674996742900 -1.596867304100
C   -4.196852519100 -1.698373327000 -0.029708938500
C   -5.556157054900 -1.610971587200 -0.297895382500
C   -6.127624765700 -2.387949396000 -1.291469872100
C   -5.343523913500 -3.258118121200 -2.029484770100
C   -3.985833037900 -3.348948780600 -1.768939879800
C   -3.418130754900 -2.575220957400 -0.773133564700
H   -2.933664785300 -1.182847802400  3.118507687000
H   -2.702776661900 -2.585481725500  2.063580855300
H   -4.326830120700 -2.152029783400  2.611199081700
H   -4.265417102100 -0.065451456900  1.347862366500
H    0.021247923000  3.121034096500  0.922982048700
H    1.507149745500  4.348993795500 -0.622602729800
H    3.666315860100 -0.585492046300 -1.856136832200
H    4.993448978700  0.597997692200 -3.529346878700
H    4.811095117100  3.047720433300 -3.774227282500
H    3.216351424200  4.304453223500 -2.371738605200
H    0.517779400100 -3.866579485200  0.281390932000
H    2.806466078000 -4.709829055400  0.718124974400
H    5.152097007400 -4.260343996300  1.195245472300
H    6.997672959400 -2.662442455700  1.543459199800
H    6.576865271900 -0.238087167500  1.350699215200
H    4.362531412000  0.593256656800  0.735313624500
H   -3.580584597000  0.630771638900 -0.768406564700
H   -2.473988185800  1.507728046000  2.261295590500
H   -2.514291212400  3.749739570400  3.235386183000
H   -2.594705223000  5.742567892000  1.773592140400
H   -2.667575893100  5.447324226200 -0.679387097000
H   -2.651365764400  3.208177726100 -1.653696994700
H   -2.006517776100  1.266414573000 -2.426974112200
H   -0.623884215700  1.013176983000 -1.361880758900
H   -1.587055944000 -0.364759533300 -1.911098293900
H   -6.171497631900 -0.929699340600  0.274124306300
H   -7.186626138900 -2.310552414700 -1.491779874700
H   -5.788328610200 -3.861967607100 -2.807126916600
H   -3.368704188100 -4.024911452500 -2.343639006500
H   -2.358263025200 -2.634550394400 -0.573542606000
