70
-106.10200086
C   -2.506976495300  1.856181167600 -0.705643831800
C   -2.079920077600  0.389528878900 -0.745053868000
N   -2.148133662500 -0.245148513900  0.568553495600
P   -0.796227465300 -0.765998920300  1.408498393000
O    0.228748760000  0.552927834000  1.544766662400
C    1.019010180700  1.099007261200  0.567671589000
C    1.999703995700  0.379009439500 -0.089128824200
C    0.841483647500  2.473052182200  0.310616655000
C    1.586408003900  3.103940129500 -0.640094904700
C    2.510752365900  2.380277383400 -1.423083640600
C    2.712202991500  1.000528099100 -1.155861711600
C    3.584943990700  0.277989055600 -1.998499522400
C    4.258048197900  0.898877095500 -3.014292830100
C    4.095332377000  2.272998632500 -3.243514560800
C    3.232084623700  2.994696227500 -2.467691442300
O   -0.039506461400 -1.511267377700  0.128905051800
C    1.253531266600 -1.922701202500  0.377977269000
C    1.482083959000 -3.275059816200  0.681811885600
C    2.750560289900 -3.715194488400  0.922427206100
C    2.287081823500 -1.013285616400  0.304230368100
C    3.602869252900 -1.438898474600  0.647345486300
C    3.833854421300 -2.810518529500  0.936083563400
C    5.140201567700 -3.236147808000  1.256532388200
C    6.172424195900 -2.343299976300  1.326708321800
C    5.934931127500 -0.980313314100  1.095740552200
C    4.683647795100 -0.538440521600  0.765256702700
C   -3.387358685100 -0.297050717500  1.341695899200
C   -3.752363014800  1.051979785400  1.936107077600
C   -2.824296736400  1.659492316500  2.775464434500
C   -3.085007988400  2.884370832600  3.360113197100
C   -4.291994508000  3.521801807000  3.121109047600
C   -5.228295375000  2.920650262600  2.299210432900
C   -4.962675398700  1.694024093500  1.711194022500
C   -4.526400903600 -0.980994322300  0.592341569300
C   -2.788363414100 -0.426915678900 -1.812946211600
C   -3.707549719800  0.118347101300 -2.700687217100
C   -4.310552838000 -0.670866845700 -3.667210422300
C   -4.003548081000 -2.015693311100 -3.767339499600
C   -3.079243998900 -2.567217876800 -2.895456727600
C   -2.478261411800 -1.778264055400 -1.932818393000
H   -3.578079591500  1.956987956900 -0.557763651200
H   -2.220925017700  2.347232354700 -1.633317158100
H   -2.004651138500  2.357206655700  0.117484924800
H   -1.012148453100  0.369035093800 -1.008925119200
H    0.111823468400  3.006372133800  0.901332402900
H    1.459288403000  4.161183348100 -0.821168564100
H    3.707615569600 -0.783005711200 -1.841818695800
H    4.918127701400  0.328117555500 -3.651152110400
H    4.643676961900  2.749471868400 -4.042926595200
H    3.078509545500  4.049219931300 -2.647993336300
H    0.633447736900 -3.942167398700  0.710579723100
H    2.937100644600 -4.757457351300  1.135351422000
H    5.304442156100 -4.285157320700  1.457747867100
H    7.169450766400 -2.676549622700  1.574839075400
H    6.749195436400 -0.276089342400  1.185123369200
H    4.510140363800  0.514390900600  0.602746156800
H   -3.133667075900 -0.939856822400  2.199630882600
H   -1.882689803600  1.159298257900  2.963342125200
H   -2.348467807300  3.340182699000  4.006512935500
H   -4.501403686900  4.478568652800  3.576950938000
H   -6.174717597300  3.407681016500  2.112190783100
H   -5.710407410600  1.247468189100  1.074601575100
H   -5.367040127000 -1.125465441000  1.267201081900
H   -4.850580041000 -0.400278023100 -0.265690869500
H   -4.194293194400 -1.953528020300  0.237901172000
H   -3.968386039100  1.163720178900 -2.651152554500
H   -5.025537989100 -0.227612953800 -4.345911092200
H   -4.476617527900 -2.628700819400 -4.520794245600
H   -2.823951567300 -3.615052475400 -2.967803838300
H   -1.755943836600 -2.209905476900 -1.257439906600
