70
-106.10654275
C   -3.416401933600  0.387696099600  3.075031860400
C   -3.370788949400  0.312451656200  1.548736757100
N   -2.019901900700  0.588214435000  1.056312236400
P   -0.878862675900 -0.595674823300  1.353523983900
O    0.408324833200  0.207775737800  2.054588331700
C    1.331210416200  1.008448725900  1.433810005100
C    2.137560790700  0.560827877500  0.403039835700
C    1.487982648200  2.308313544800  1.954972314300
C    2.381395631100  3.177095148100  1.403729903500
C    3.128449703200  2.807967629300  0.264996480300
C    2.999273023300  1.490755317000 -0.249024623500
C    3.700597275500  1.164143676000 -1.430313190700
C    4.520752712300  2.074567081700 -2.037678486000
C    4.684663902800  3.359052042700 -1.498736499000
C    3.994940710000  3.718311645500 -0.374840584300
O   -0.275669679200 -0.693317717100 -0.197036920900
C    0.880690412300 -1.432250553700 -0.323122270000
C    0.788833741600 -2.755446616200 -0.785784949200
C    1.919386651900 -3.503822749700 -0.935804992400
C    2.094173300200 -0.853410990700 -0.016420696600
C    3.271614319000 -1.653457059800 -0.077945859200
C    3.179099674000 -2.984272519800 -0.566778960000
C    4.348044763000 -3.769883879000 -0.649195130600
C    5.554435971100 -3.280628178900 -0.233353917400
C    5.637203461000 -1.986600784300  0.301422659900
C    4.525810473900 -1.193432266200  0.378336112600
C   -1.791356716700  1.792474921600  0.261885426200
C   -2.671697719900  1.795829461000 -0.972435452500
C   -2.347919951300  0.942115106200 -2.022323974400
C   -3.136599294200  0.874424732400 -3.155653120300
C   -4.269480260500  1.664691367300 -3.261623586900
C   -4.599733714600  2.521564891100 -2.226889047400
C   -3.808122457800  2.587062948800 -1.091203254600
C   -1.928086103200  3.049372617100  1.122245468200
C   -3.838654009800 -1.018162423600  1.001930080900
C   -3.543042348700 -2.222456785200  1.629982629300
C   -3.927884224400 -3.426047126500  1.064196396300
C   -4.614809314300 -3.446596655000 -0.137514981000
C   -4.925117089500 -2.252256211300 -0.765042787000
C   -4.542819065400 -1.050287646700 -0.196284830000
H   -4.385660028100  0.055799887500  3.440272462900
H   -3.245720199600  1.410045265500  3.403701881000
H   -2.635888807100 -0.236941004500  3.503377651900
H   -4.026297830600  1.086840171300  1.136721818500
H    0.893098857800  2.579836317000  2.814245877600
H    2.510403142500  4.166108225000  1.818368592300
H    3.571682746100  0.183593283800 -1.863119554900
H    5.044964733500  1.807285455000 -2.943709868500
H    5.345451918100  4.061746965900 -1.984917049500
H    4.093294116300  4.712166198600  0.038324828200
H   -0.191442344300 -3.144588027600 -1.018780571500
H    1.861034454500 -4.514614359400 -1.311946866500
H    4.265853619000 -4.774557274500 -1.038858208000
H    6.444554172400 -3.889071748600 -0.298269706000
H    6.588011707100 -1.618587269500  0.658509485700
H    4.599258175900 -0.204296215400  0.803981100800
H   -0.750754909600  1.730651348100 -0.080484361000
H   -1.470721796600  0.318406012100 -1.939937006700
H   -2.866830860800  0.202812665400 -3.958133139800
H   -4.889519290200  1.613451836700 -4.144949818600
H   -5.480699582600  3.143598105000 -2.299466642600
H   -4.089285738200  3.268709342600 -0.303153756600
H   -1.727551135600  3.932822668700  0.520294713700
H   -2.921029764000  3.131019047700  1.556166218100
H   -1.206698729700  3.008999783700  1.933568068300
H   -3.017400792600 -2.229547134600  2.571725035900
H   -3.689169938700 -4.352534024600  1.566527723400
H   -4.911053622400 -4.387013588700 -0.579411884200
H   -5.467509447100 -2.253685111000 -1.699697947800
H   -4.789673081100 -0.123638863800 -0.694063775500
