70
-106.10838098
C   -1.801942461200  2.852663984500  1.106328813400
C   -1.756630160100  1.540286079900  0.321529720400
N   -1.877556982000  0.390602293000  1.220552904500
P   -0.663258317900 -0.734223094700  1.468396735600
O    0.596560519500  0.144189127500  2.128843006500
C    1.464695402000  0.989013321800  1.490528668100
C    2.260337948400  0.584743521700  0.434313577400
C    1.580413560200  2.290887214900  2.017851216600
C    2.414340373100  3.203209704700  1.443734931800
C    3.138698631200  2.876388990500  0.277668704500
C    3.056674111700  1.556588425800 -0.239046986800
C    3.735758721800  1.267535888600 -1.442797869900
C    4.490966863800  2.218643303500 -2.071650343900
C    4.608791472100  3.508007575500 -1.532376955800
C    3.938965979000  3.829781077200 -0.385250505100
O   -0.103981546300 -0.799488872300 -0.102572588100
C    1.088957804500 -1.470566080300 -0.265860535100
C    1.058263610600 -2.793580227300 -0.737460612800
C    2.222586845200 -3.480937845400 -0.917178163200
C    2.277180611400 -0.828880783100  0.012210160300
C    3.493325151800 -1.565743113500 -0.079609213900
C    3.460613989700 -2.898446343800 -0.570598166400
C    4.666632094200 -3.622412870500 -0.678573556800
C    5.854030256100 -3.071830775100 -0.285555110500
C    5.880348962900 -1.775677491800  0.249865670500
C    4.731154249400 -1.041342778500  0.351125146400
C   -3.209885526500  0.095224707600  1.727587126300
C   -4.008726071400 -0.799978095700  0.803227357900
C   -3.459418627000 -1.973266703900  0.308436171800
C   -4.188442334300 -2.799537178300 -0.526242372500
C   -5.487290641200 -2.464094861600 -0.870527409000
C   -6.049486986000 -1.302295849500 -0.371262260300
C   -5.314471050600 -0.476683689900  0.461124688300
C   -3.141415896100 -0.532398901100  3.120385039500
C   -2.778493949000  1.451353510100 -0.793329278300
C   -3.899421698300  2.267570540200 -0.862988366400
C   -4.820837796900  2.114919075200 -1.885801122200
C   -4.638398066500  1.143534737600 -2.852831491900
C   -3.520935755800  0.327695304900 -2.796168192500
C   -2.601131043200  0.484266026900 -1.777377553700
H   -0.978513878000  2.875320496800  1.814231839300
H   -2.728849682600  2.960233841700  1.663710161100
H   -1.696649384300  3.693034796400  0.424178101000
H   -0.762932604100  1.465531098600 -0.137093185300
H    1.006529690100  2.528059423000  2.901666847600
H    2.512608914000  4.194205315500  1.862158853000
H    3.641204036400  0.283031221700 -1.875664095000
H    4.998650019800  1.979956268100 -2.994937534700
H    5.218381292400  4.243684080800 -2.036349568600
H    4.002267660900  4.826029735100  0.029020918700
H    0.097522234700 -3.235086703000 -0.956965998800
H    2.208745001000 -4.491012792300 -1.299444555100
H    4.628729706300 -4.629548068400 -1.068726300000
H    6.772932637600 -3.633417793500 -0.368955428900
H    6.817789376200 -1.359265157200  0.588657557100
H    4.761909009300 -0.050307057800  0.777549961700
H   -3.739001976900  1.051254869000  1.812060153800
H   -2.443697189100 -2.233880858200  0.575748298300
H   -3.744762309500 -3.707909479200 -0.908299699200
H   -6.058350071800 -3.106700039100 -1.524787720800
H   -7.062877589200 -1.034977057000 -0.633803063400
H   -5.759330672400  0.430838612800  0.844305622000
H   -2.480404090400  0.051620101900  3.757388929500
H   -4.135474689100 -0.557443712200  3.561663044200
H   -2.762461564800 -1.549423784800  3.064406226600
H   -4.067603288000  3.034319285400 -0.122716287300
H   -5.687966178000  2.759040635700 -1.923259308000
H   -5.360663583700  1.023108745300 -3.647134414800
H   -3.365552594300 -0.432135651800 -3.548634233700
H   -1.731665757800 -0.154646467600 -1.733245513000
