70
-106.10656886
C   -3.541571651000  0.223157589300  3.079268418100
C   -3.415664083000  0.211047804000  1.555761440600
N   -2.061613909600  0.580759036700  1.140509472300
P   -0.880389646600 -0.567546456100  1.417403160100
O    0.396028862100  0.293507032800  2.057620661000
C    1.310605020200  1.065280347700  1.386899159200
C    2.105572997500  0.572940326400  0.368126021300
C    1.470017489600  2.388748450100  1.844821433600
C    2.357850323300  3.231695710600  1.246688477900
C    3.097081676500  2.810941264200  0.120814775900
C    2.961916104300  1.472465762600 -0.332666147800
C    3.651804056500  1.093039587200 -1.504895525200
C    4.467842879300  1.974231815300 -2.159147356400
C    4.638383454700  3.280951383600 -1.679089187200
C    3.958817614700  3.690814475200 -0.566358265900
O   -0.318119492900 -0.688506230100 -0.151516817000
C    0.833118121500 -1.434219378200 -0.282456614000
C    0.732548554100 -2.767496600500 -0.713473441500
C    1.858113974100 -3.526367442000 -0.847686447000
C    2.052422922900 -0.854722403400 -0.000725741800
C    3.224997956000 -1.662462078300 -0.045620482100
C    3.122226887900 -3.006408395900 -0.494469851300
C    4.285397459000 -3.802431283300 -0.554633205300
C    5.495907946000 -3.309122589500 -0.155766740500
C    5.589231297100 -1.999347146700  0.337372795200
C    4.483587971900 -1.196367460500  0.391912829600
C   -1.852622115300  1.843833011000  0.438290957700
C   -2.679010750500  1.901457997400 -0.830910380700
C   -2.252768369600  1.170452423500 -1.935343761700
C   -2.988082034200  1.153339092600 -3.105961528100
C   -4.168662995100  1.872762044800 -3.195080736300
C   -4.600529486700  2.608500918000 -2.105931918500
C   -3.862383737000  2.623347454800 -0.933165223700
C   -2.077010274200  3.030178823200  1.377212092600
C   -3.768114063700 -1.122709339900  0.934919764700
C   -3.471333665100 -2.331525943000  1.553478384800
C   -3.746386947700 -3.532816245100  0.922274629200
C   -4.318081954200 -3.546212599700 -0.338419815300
C   -4.624860778300 -2.347689681500 -0.959971031400
C   -4.356367372900 -1.148480504200 -0.324515340600
H   -4.503418581300 -0.185249453000  3.381020953400
H   -3.456827100200  1.240305157500  3.453775883000
H   -2.743032185200 -0.365625681600  3.524623373400
H   -4.095972626200  0.960525143400  1.137811245500
H    0.878169215100  2.702562140700  2.691171759300
H    2.487287405300  4.239482285900  1.613086681600
H    3.517685648900  0.094872282700 -1.893440679300
H    4.983405283200  1.666075607700 -3.057140641700
H    5.295672942400  3.960269587400 -2.201847644300
H    4.061614636500  4.701969215600 -0.198809651100
H   -0.249833297300 -3.156528456400 -0.935776090000
H    1.792096811900 -4.545936804700 -1.198022688300
H    4.195416757500 -4.818108948200 -0.912762951400
H    6.381449690300 -3.925853265300 -0.202563026400
H    6.543564086200 -1.627036773400  0.680336901700
H    4.564506946100 -0.194541142000  0.785466329100
H   -0.797676234000  1.845408676100  0.136930189200
H   -1.338156853000  0.600647324300 -1.866985999200
H   -2.638883483100  0.577149168800 -3.950856172500
H   -4.746945635300  1.860724306200 -4.107633152200
H   -5.519322418500  3.174650148800 -2.165073710800
H   -4.222173600400  3.211478330000 -0.102826673000
H   -1.874319440800  3.961305488000  0.852889232200
H   -3.093980279400  3.050486360100  1.759180262900
H   -1.401397137600  2.949065498600  2.224577904800
H   -3.030277068100 -2.344810817500  2.537664470500
H   -3.509196539300 -4.463092981000  1.418351038400
H   -4.526143108400 -4.484538994400 -0.832138097300
H   -5.076060876700 -2.343979465600 -1.941944221300
H   -4.599909054800 -0.218194304400 -0.817211971800
