70
-106.10638407
C   -3.183428722600  0.620405005000  3.022315643300
C   -3.282470215100  0.444134219500  1.506569357000
N   -1.964119911300  0.590475913000  0.885295190000
P   -0.878862870800 -0.644985290000  1.188920172400
O    0.404734112500  0.071336932300  1.998891462200
C    1.336506417400  0.919142505100  1.463851461400
C    2.182208360900  0.537143219800  0.438492099800
C    1.455879851700  2.190610109400  2.059080577700
C    2.360200565600  3.095680214800  1.588689343800
C    3.154951820300  2.794484222000  0.462340599000
C    3.059712495500  1.506288929600 -0.127728288700
C    3.812145386000  1.248936837700 -1.294612385500
C    4.647881719800  2.196884582200 -1.817264071900
C    4.776526724100  3.451673190100 -1.203640300500
C    4.037914015600  3.744546619100 -0.091626926000
O   -0.203075639600 -0.686572318100 -0.328463692800
C    0.960857247300 -1.419583100300 -0.434128797400
C    0.891721936200 -2.720037644000 -0.960444153100
C    2.029432807500 -3.459557361000 -1.100835627800
C    2.159878030400 -0.854114435900 -0.054164391800
C    3.341212842100 -1.648793572600 -0.107683528000
C    3.272229762400 -2.955766344500 -0.660527204700
C    4.446155863900 -3.734888127400 -0.734154797900
C    5.633991678000 -3.263227972700 -0.250319110200
C    5.691876344400 -1.994832420300  0.345773081200
C    4.575679399900 -1.207904577000  0.416400887300
C   -1.737986712700  1.722194235700 -0.010486497400
C   -2.710704307500  1.671393565000 -1.172192824600
C   -3.794847330800  2.531630807500 -1.295543716400
C   -4.674848184500  2.410571287100 -2.359558240700
C   -4.486282184500  1.428456853800 -3.315467923800
C   -3.406691341200  0.567316407800 -3.203683608700
C   -2.530059798600  0.690191369600 -2.142141754300
C   -1.747731142600  3.048285780200  0.750703997100
C   -3.894950515000 -0.878227681200  1.100928750000
C   -3.631465197600 -2.058959874200  1.785478434300
C   -4.162577484900 -3.260821095500  1.349372270900
C   -4.967349457100 -3.303142694200  0.223846438000
C   -5.247171099300 -2.131023494600 -0.457505943400
C   -4.717702788700 -0.930507772200 -0.018548839000
H   -4.136076658600  0.388228352100  3.493112698200
H   -2.911124546800  1.645694867800  3.261650920800
H   -2.412949160000 -0.033973315100  3.424197217000
H   -3.917727710000  1.237762671900  1.099307710000
H    0.826277715600  2.408128973600  2.909596121600
H    2.462117908400  4.062867396200  2.058961176500
H    3.711066445200  0.291615156300 -1.783352292500
H    5.212307499900  1.982943243700 -2.713256179200
H    5.449996684800  4.184535867000 -1.623356837900
H    4.110114112800  4.715259734100  0.378130452400
H   -0.076661487200 -3.100996151200 -1.249546252800
H    1.988270266500 -4.452119384300 -1.524684475400
H    4.382285743000 -4.720682125200 -1.172407275900
H    6.527973707200 -3.866634455300 -0.308673985500
H    6.627120044400 -1.642001585700  0.755390228900
H    4.629497285300 -0.239156746000  0.889184248800
H   -0.730848700400  1.582608366700 -0.421134008800
H   -3.965893261400  3.309386943000 -0.567138702000
H   -5.513844204000  3.087570445600 -2.437476309900
H   -5.175208468400  1.334511217600 -4.142436133500
H   -3.248395364100 -0.202664983700 -3.945175654100
H   -1.693530569800  0.013713258700 -2.052181455600
H   -1.570485909600  3.869332247000  0.059550055200
H   -2.692581632500  3.211197134500  1.262513244000
H   -0.953149758100  3.043088624700  1.491902986400
H   -3.015561250800 -2.047831401700  2.670679974300
H   -3.946266931800 -4.168719542100  1.893876772900
H   -5.378486949300 -4.242472004900 -0.116611579600
H   -5.881028803600 -2.148374462400 -1.332492268200
H   -4.943348198000 -0.021290694300 -0.556731248400
