70
-106.10432734
C   -3.032300973300 -0.345626786700  3.156978945300
C   -3.554256786000 -0.160351301900  1.731491293800
N   -2.459641067500  0.009044905700  0.780146082900
P   -1.062399201000 -0.868158845200  1.126688550100
O    0.009657123600  0.263947811600  1.757364756500
C    0.884907992500  1.094561929200  1.122942066000
C    1.772477722700  0.664240642000  0.154277574600
C    0.916505642100  2.426222088500  1.583823088900
C    1.788772010100  3.327246586900  1.053301068700
C    2.612524476400  2.968471851200 -0.034025573600
C    2.586538632300  1.630943084300 -0.506173009800
C    3.345548174800  1.315475349300 -1.653656069300
C    4.126336126900  2.257459831100 -2.264938002900
C    4.193720071900  3.564176499000 -1.760829752200
C    3.444862978200  3.911119886000 -0.671266713100
O   -0.479154491200 -0.944201729600 -0.410105284800
C    0.779765007700 -1.513538142300 -0.484728918400
C    0.875391653900 -2.855678757100 -0.888572739800
C    2.095016609900 -3.459816859000 -0.977030824600
C    1.897706329000 -0.766333159900 -0.181154310900
C    3.167687484500 -1.417900266600 -0.163366013400
C    3.263464039900 -2.769379410600 -0.590705060400
C    4.522539316200 -3.406074800500 -0.592467240800
C    5.639870165800 -2.754249016500 -0.152319268900
C    5.537217208400 -1.440554469500  0.327916269300
C    4.334517995000 -0.789456924700  0.323304208800
C   -2.845478320600  0.588976678800 -0.508861481200
C   -1.816573361700  1.594848688300 -0.982331806200
C   -0.998089224800  1.398685381900 -2.086266205000
C   -0.118064313300  2.385866562900 -2.495304993100
C   -0.050249992100  3.589607681600 -1.817591912700
C   -0.858821936100  3.795132786600 -0.713290625300
C   -1.729558452700  2.804373701000 -0.300563293300
C   -3.222530066300 -0.460216684000 -1.556651459800
C   -4.482645330500 -1.304755050900  1.383245434500
C   -5.858030898900 -1.116840119600  1.353184032800
C   -6.706949196100 -2.170821166700  1.059139656900
C   -6.188348476100 -3.425659853600  0.790217133700
C   -4.816834076700 -3.621934672700  0.817861561800
C   -3.972470187000 -2.568241702900  1.115510583600
H   -2.627264105300 -1.344439264900  3.296544077100
H   -3.846849688900 -0.202790895500  3.864554431700
H   -2.248717620800  0.380483527100  3.361898386700
H   -4.137433641900  0.772258493700  1.710793125000
H    0.242649137000  2.695638037900  2.383206829900
H    1.833643141500  4.336868448200  1.434860419500
H    3.290998661700  0.317043060100 -2.060993488000
H    4.693691440200  1.998055076100 -3.147199455300
H    4.825384657900  4.292907581700 -2.247830093100
H    3.465218024100  4.921733588000 -0.288001799800
H   -0.036375932600 -3.381650123500 -1.130354965900
H    2.177184125900 -4.483761193300 -1.310431737600
H    4.581006107300 -4.428604172100 -0.937354844200
H    6.600026265800 -3.249022180800 -0.153642893400
H    6.417169126200 -0.943483020000  0.709432787200
H    4.267424218600  0.215365365500  0.710960536400
H   -3.757346062300  1.170398669600 -0.302981406300
H   -1.038570413900  0.471678123900 -2.635691120100
H    0.514973596100  2.214769326900 -3.354310436400
H    0.629574684400  4.361263365600 -2.147222931300
H   -0.815851731200  4.731667407900 -0.176325920000
H   -2.360717447800  2.971010522700  0.561919567300
H   -3.508347088100  0.035274138100 -2.482160242500
H   -2.395291685900 -1.134451409400 -1.750503622400
H   -4.066470263300 -1.045507683100 -1.198939348600
H   -6.269411915400 -0.138434275700  1.560651211000
H   -7.775211474800 -2.010181892300  1.037931291900
H   -6.849401994800 -4.248010653200  0.558672999500
H   -4.405599486100 -4.598857352700  0.608404035600
H   -2.900890056200 -2.718020111800  1.128966398600
