70
-106.09960962
C   -3.796439104700 -1.189742939700  1.227379724000
C   -2.725681201400 -0.097701009700  1.185825034600
N   -1.868247073900 -0.116554040400 -0.005121563300
P   -0.733815343900 -1.407202048000  0.090761481900
O    0.196454777000 -0.950473013000  1.381010619900
C    1.015187995400  0.157997832700  1.401635897400
C    2.097971721700  0.271790035900  0.552258400000
C    0.758823660100  1.134172306200  2.381232591400
C    1.539408864700  2.250405046600  2.464822578400
C    2.580936266600  2.468530280700  1.539141019000
C    2.860503265200  1.474335870800  0.564147751700
C    3.865982318100  1.737494222600 -0.391826363100
C    4.583636798600  2.900906599100 -0.355667722800
C    4.335642118600  3.862157232700  0.635817717200
C    3.349548730200  3.651539607800  1.558120399800
O    0.203059788300 -0.841931452000 -1.155288650300
C    1.482731865300 -1.360763950400 -1.189461576600
C    1.774852664600 -2.383820089700 -2.105650762200
C    3.035961525400 -2.901755197800 -2.169804658500
C    2.446406089500 -0.846075214000 -0.348543005600
C    3.741976394500 -1.435911805500 -0.343338321200
C    4.039419824200 -2.461160890800 -1.281301068300
C    5.328927793200 -3.034124261600 -1.288650035300
C    6.277736977800 -2.639366405600 -0.388067013300
C    5.969254712400 -1.663151948600  0.571243163700
C    4.734444908200 -1.076401433500  0.594462666900
C   -2.430005972400  0.138867181400 -1.337135704500
C   -3.515772155900 -0.832533312300 -1.757110468000
C   -3.158762319000 -2.160677636200 -1.964545202300
C   -4.092638459200 -3.102583198400 -2.353003582400
C   -5.409876604200 -2.725075449700 -2.556248450200
C   -5.776065352800 -1.403874462800 -2.368687255600
C   -4.838023194100 -0.463808939700 -1.973393778300
C   -2.816517332800  1.605467205100 -1.521109379600
C   -3.248153496800  1.295907047100  1.469453990900
C   -2.335813563000  2.346594680300  1.526916690800
C   -2.745525689200  3.633070597100  1.819411023100
C   -4.083418785500  3.895498255700  2.066899709100
C   -4.998755798200  2.859877525400  2.015905963700
C   -4.586277733800  1.569424593600  1.721829967100
H   -4.219617082000 -1.246330874700  2.228344723400
H   -3.333386253200 -2.147979944800  0.995358284200
H   -4.591929520000 -1.012149705200  0.510909309400
H   -2.028421526700 -0.329800693600  2.006827751900
H   -0.055537432200  0.964487828700  3.069895705600
H    1.350047390700  2.991399841000  3.227613304800
H    4.055811729200  1.010426749100 -1.166921153300
H    5.346248517800  3.087543783700 -1.097715413600
H    4.919518687200  4.770729912400  0.655441070300
H    3.134040548700  4.393127720400  2.314176473800
H    0.983743923400 -2.734249689700 -2.751903954600
H    3.273171743500 -3.675950018600 -2.884489071200
H    5.546166025600 -3.802438021900 -2.016837943500
H    7.261817852600 -3.084451722200 -0.398495695900
H    6.715257705300 -1.378590159300  1.298814879600
H    4.503722988900 -0.335788216500  1.344827632200
H   -1.586608178700 -0.039823949200 -2.014540927700
H   -2.127162001100 -2.455094630900 -1.815736636900
H   -3.792158528100 -4.129347349800 -2.504115459800
H   -6.144033423700 -3.455525170200 -2.863196752400
H   -6.800377580000 -1.099228029900 -2.530173926900
H   -5.150512501300  0.558617855300 -1.829439311300
H   -1.970991019000  2.236952399800 -1.260159057200
H   -3.069603941400  1.776615452900 -2.565726371100
H   -3.658888261000  1.890407583200 -0.899354533300
H   -1.294243549000  2.145050155700  1.325909200000
H   -2.019177798700  4.432324408100  1.856405337800
H   -4.408779764900  4.899329442400  2.298405793200
H   -6.044814769100  3.052881462600  2.207560514900
H   -5.323522638900  0.783076121100  1.688660421100
