70
-106.10083047
C   -3.201712183700 -0.786695781300  2.628210662700
C   -3.326744887700 -0.338240868300  1.173483783100
N   -2.057299137200  0.171592924300  0.638272159100
P   -0.706709512600 -0.673145523400  1.190597205000
O    0.343808907400  0.521579091800  1.686698414500
C    1.303775418000  1.199263391600  0.991147034700
C    2.255174812400  0.575446465600  0.206220586500
C    1.320245370800  2.598566185500  1.167457055400
C    2.234218127700  3.372398869500  0.518179159400
C    3.139135328800  2.792634316300 -0.396416214100
C    3.140959937900  1.383509072300 -0.568065791200
C    3.992790157300  0.834871305300 -1.551464406900
C    4.832217932600  1.630209773500 -2.281965231900
C    4.866882241000  3.015958235600 -2.070245938800
C    4.029527627900  3.583715018900 -1.151257163000
O    0.004800857100 -1.057834511400 -0.267732426100
C    1.239439462900 -1.659493853200 -0.124275398100
C    1.321854616800 -3.053673489200 -0.278756582100
C    2.519892501200 -3.689587776000 -0.137689282800
C    2.354292946000 -0.896179765200  0.154199506600
C    3.591005895900 -1.560059664400  0.408011150800
C    3.673455475900 -2.967669012900  0.236477357500
C    4.902789718900 -3.620114394300  0.467214462100
C    6.000022377700 -2.922557888000  0.887826334300
C    5.905132922200 -1.541560396100  1.113594759200
C    4.732631113600 -0.877219899900  0.880816563800
C   -2.242293686200  0.842277709300 -0.655538081100
C   -3.340985272600  1.880914289100 -0.562227920600
C   -3.302453831100  2.857435686500  0.427259332800
C   -4.274344144100  3.839246742800  0.485168580600
C   -5.294278794100  3.863194971900 -0.452689679700
C   -5.337602239100  2.897747494000 -1.443751610000
C   -4.366634844800  1.911420843900 -1.496677678800
C   -1.002545179900  1.579965316700 -1.161446518100
C   -3.897991284500 -1.451939398600  0.323267408500
C   -5.177148133200 -1.351433899200 -0.207496726000
C   -5.697901354900 -2.370816807000 -0.986602993800
C   -4.943046766700 -3.502145060100 -1.245366239900
C   -3.665979290700 -3.610513053300 -0.719222142800
C   -3.150789099200 -2.591649285800  0.061270734600
H   -2.719670154100 -1.757067453900  2.707045974700
H   -4.195166460000 -0.860501562800  3.066140360900
H   -2.618728318700 -0.058794086200  3.188547409400
H   -4.032815902800  0.500840624700  1.150301078000
H    0.593770878900  3.026862740600  1.842368894800
H    2.255808613400  4.441343905100  0.672246378400
H    3.965892306000 -0.228270489200 -1.736901410100
H    5.471829961700  1.190837872900 -3.033689229800
H    5.544667575400  3.627929012300 -2.647274540800
H    4.025741822900  4.653277096500 -0.995658879700
H    0.418044826200 -3.592290788400 -0.520847009900
H    2.593657528300 -4.757737809500 -0.279435305300
H    4.954007851800 -4.688931634800  0.315682702300
H    6.937435565500 -3.429288973400  1.064472815700
H    6.766663714300 -1.002139354900  1.479326161300
H    4.668901234300  0.182981742300  1.072391822200
H   -2.531395829900  0.090676801100 -1.408318217900
H   -2.512138566900  2.829541694000  1.163260009700
H   -4.236457191300  4.589257927600  1.262136201400
H   -6.052828017400  4.631165853300 -0.409708401200
H   -6.130627129100  2.909586045600 -2.177637294200
H   -4.405711008500  1.155755734800 -2.269156755200
H   -0.191069668100  0.897837792000 -1.390897439400
H   -1.266012565500  2.114746806900 -2.072961867200
H   -0.664536877300  2.304273643000 -0.425566401600
H   -5.766932267700 -0.466597254100 -0.011687831800
H   -6.694288397100 -2.279633456200 -1.394621817500
H   -5.347079034900 -4.297024287300 -1.855331603900
H   -3.073763777900 -4.492619525700 -0.916603800600
H   -2.152183592200 -2.673147292200  0.469933525400
