70
-106.09982698
C   -1.142562130100  2.101095265500 -0.172220235200
C   -2.329039867700  1.140315717500 -0.269063754500
N   -2.172837688000 -0.050312695500  0.571358685100
P   -0.815968239700 -1.061353207200  0.651083473800
O    0.202178004100 -0.300481315100  1.721778871800
C    1.136859422000  0.671828976700  1.498803412800
C    2.111128810100  0.570449447800  0.523675181300
C    1.102862204600  1.776438886500  2.373855338600
C    1.992187905900  2.799534489000  2.237733237700
C    2.920905239800  2.801576457800  1.175314194800
C    2.972495547500  1.685877733100  0.298846073100
C    3.848528375600  1.748643401000 -0.806777836900
C    4.663863749200  2.829504764300 -1.000888767200
C    4.648929250300  3.905770059400 -0.102011743400
C    3.787415258800  3.892854837200  0.958883401000
O   -0.082360768600 -0.632940745200 -0.779565624100
C    1.169385410800 -1.196104392300 -0.937929606700
C    1.296582857300 -2.307625079700 -1.787650652100
C    2.514112136700 -2.894959342900 -1.968745485800
C    2.257174261700 -0.659345554000 -0.280566431300
C    3.513230453100 -1.328009236400 -0.379080891200
C    3.641960787600 -2.441702736700 -1.251298430500
C    4.890865171800 -3.088073557300 -1.364695770000
C    5.962679210400 -2.680992609000 -0.621047688200
C    5.821855053800 -1.618548357100  0.283671106700
C    4.629587912200 -0.959289663400  0.402608310900
C   -3.401289692000 -0.863920279700  0.710988789600
C   -3.459616993400 -1.925209712600 -0.363649825000
C   -2.930835836100 -3.198825601600 -0.186679556300
C   -2.946176593500 -4.118509903600 -1.221378421100
C   -3.484447969500 -3.780443501300 -2.451416657000
C   -4.024234420100 -2.519053527300 -2.635696348900
C   -4.016981032700 -1.604513808200 -1.597064071100
C   -3.492384841900 -1.411598962400  2.131919843800
C   -3.549863601500  1.928871643200  0.155022019700
C   -3.734025114600  2.271044379300  1.490235010600
C   -4.819994232700  3.033608431700  1.878099498800
C   -5.733033879000  3.474176481600  0.933360008800
C   -5.552865976300  3.146661193700 -0.399337345900
C   -4.467212358900  2.378327013800 -0.785254055700
H   -0.954974862800  2.365137023000  0.864969386000
H   -1.381179702400  3.009921337600 -0.722700971400
H   -0.242243151600  1.671961733200 -0.599114958400
H   -2.443145664900  0.838501952000 -1.322814188800
H    0.358743878500  1.772367229800  3.156529048900
H    1.976167149900  3.634824493700  2.922413559400
H    3.859594788100  0.934481886500 -1.515561733200
H    5.322847074400  2.860256355300 -1.856432342700
H    5.308198743200  4.746025965800 -0.263566559900
H    3.745794627700  4.726554109200  1.645408997700
H    0.410241181800 -2.664892412800 -2.289946384400
H    2.623079948200 -3.734190341400 -2.639751830600
H    4.977677940400 -3.922775525600 -2.045583980400
H    6.915212277600 -3.182102099200 -0.711852078800
H    6.663468306700 -1.324359156700  0.893638630100
H    4.530363602100 -0.152743098600  1.112803778000
H   -4.250622437500 -0.189496699800  0.556727079600
H   -2.513864089400 -3.485093780500  0.765884862000
H   -2.533238846200 -5.104736924400 -1.064920696800
H   -3.490408352000 -4.497846713900 -3.259263657000
H   -4.457227866400 -2.247716741300 -3.588091621700
H   -4.457533759500 -0.627677739200 -1.741580396600
H   -4.326680483000 -2.104412964300  2.213327271800
H   -2.571296023100 -1.918756304800  2.409458715100
H   -3.647216375100 -0.589940283900  2.826866359100
H   -3.023041683400  1.920941965200  2.223738203400
H   -4.954375809300  3.288571443000  2.919489011000
H   -6.581095216800  4.071289463900  1.235077522800
H   -6.259333586300  3.488540299100 -1.142051008200
H   -4.329108600600  2.127861244500 -1.828539064600
