70
-106.10043197
C   -4.363524962000 -0.134888795400  1.502871226000
C   -3.767744421100 -0.576261457700  0.168769166800
N   -2.534650839100  0.152611332800 -0.151871165800
P   -1.220676110700 -0.579647504500  0.596991635900
O   -0.243744139600  0.647169601000  1.150395215500
C    0.836814431400  1.250733293300  0.565407829900
C    1.871945643400  0.562758283200 -0.040172090800
C    0.875807313400  2.657877035900  0.675646679800
C    1.903214520400  3.372347526100  0.137783073300
C    2.915528226000  2.723255272300 -0.600432879000
C    2.890030667700  1.308382698800 -0.708691133300
C    3.856192021800  0.688553037600 -1.531089351000
C    4.823774748900  1.422347203600 -2.160491688900
C    4.879537369600  2.814706147100 -2.003842039000
C    3.936758524200  3.450640270300 -1.245830308700
O   -0.339423258900 -0.994813987200 -0.761419945900
C    0.832919411400 -1.642056434100 -0.436233712000
C    0.871573848200 -3.044129376400 -0.519787549800
C    2.009455809400 -3.717005862500 -0.185030740500
C    1.927663642200 -0.910977968200 -0.024382776000
C    3.087819367400 -1.607558615300  0.425579327600
C    3.131579742400 -3.023364155400  0.318131177300
C    4.287347104300 -3.711247473400  0.743741381100
C    5.344528257800 -3.038886548400  1.289689424500
C    5.278998932500 -1.647204252300  1.450577436700
C    4.180092968600 -0.949367324100  1.031178439000
C   -2.682460934200  1.338104045500 -0.979505684500
C   -3.063210239600  2.587997816100 -0.207983404200
C   -2.699630199100  2.780112078200  1.116705342200
C   -3.038959771500  3.947633822900  1.779491731800
C   -3.747322718200  4.940138087900  1.124539004900
C   -4.119130752600  4.755568149500 -0.196991294600
C   -3.780739348600  3.587389772800 -0.855927647000
C   -1.445780535900  1.625251998800 -1.834073739300
C   -3.465243198100 -2.057632690700  0.081558496200
C   -3.110799707400 -2.571630017400 -1.163703031900
C   -2.804443261900 -3.909848642000 -1.321544315800
C   -2.853608054000 -4.764937838100 -0.232300334000
C   -3.213552538700 -4.267434846400  1.007535996700
C   -3.520094025300 -2.925737077100  1.164452943300
H   -5.257656016200 -0.711823777500  1.726876133700
H   -4.631726489600  0.917903368100  1.453487554800
H   -3.633304654700 -0.267037064700  2.298351426600
H   -4.497638987800 -0.345838526100 -0.620162998200
H    0.066302341700  3.143723747400  1.198955522400
H    1.934761390000  4.446847777600  0.242912691500
H    3.816413731500 -0.380352775700 -1.675084893100
H    5.550068846600  0.928419804600 -2.789522623300
H    5.658128035000  3.377516150600 -2.497556388800
H    3.949103763900  4.525922221700 -1.137539531800
H   -0.019200619400 -3.554107727000 -0.854041431200
H    2.054419430500 -4.792911169400 -0.268484397800
H    4.313152113400 -4.786589360600  0.639341645700
H    6.225519427100 -3.572926140300  1.614378008000
H    6.103801608300 -1.126041697700  1.914398459900
H    4.136029128800  0.119660529300  1.173311340600
H   -3.506435571200  1.123162560300 -1.679050694900
H   -2.155689451900  2.004984726800  1.635306312600
H   -2.748870484400  4.080734591900  2.812305499200
H   -4.012540467600  5.851004770800  1.641462820100
H   -4.678018806500  5.522135577900 -0.714544165500
H   -4.079526054700  3.447341914500 -1.885988006000
H   -0.616214729100  1.964950076200 -1.221825933300
H   -1.145099996800  0.728499289000 -2.370106986300
H   -1.678822369100  2.408038303300 -2.553331465700
H   -3.070933883500 -1.907689668000 -2.015714962000
H   -2.529193420000 -4.287343020500 -2.296505331900
H   -2.612891072500 -5.811471982700 -0.350867107200
H   -3.256450301000 -4.927296053800  1.861955132100
H   -3.797361464100 -2.562905635000  2.140972928000
