70
-106.10423592
C   -3.094819773800 -0.353105030200  3.140317734200
C   -3.591909608700 -0.190754265000  1.703263609400
N   -2.483954924000  0.015796121600  0.774682678700
P   -1.067573282600 -0.814576696600  1.148853126500
O   -0.020251277100  0.365214714100  1.730749969200
C    0.873679633400  1.158545584200  1.076123722500
C    1.771580813400  0.683520277300  0.138195756700
C    0.911503224400  2.506873666400  1.485880401100
C    1.796900282400  3.380170368300  0.931712868400
C    2.629350701600  2.973727829900 -0.132047108900
C    2.599509241500  1.618683494300 -0.550729177300
C    3.366945557600  1.253778562200 -1.677808158000
C    4.158314509500  2.166505096900 -2.319284781200
C    4.228895199700  3.491813148000 -1.866991212900
C    3.473079107100  3.885593122800 -0.798314851600
O   -0.480349779700 -0.941685567700 -0.384524230600
C    0.778562728700 -1.513973935200 -0.431462678400
C    0.875352452700 -2.868893709200 -0.790074668500
C    2.094367975000 -3.477994826700 -0.845598787600
C    1.894825249900 -0.758932769100 -0.141591700600
C    3.162852648100 -1.412731889500 -0.087138798000
C    3.260032460400 -2.777814913000 -0.468245403800
C    4.517252813700 -3.417152743700 -0.433859192000
C    5.630963683200 -2.753809213100 -0.001758392500
C    5.526074032600 -1.424842018700  0.433801425600
C    4.325325093200 -0.771361632700  0.392890930200
C   -2.859843968400  0.600129313600 -0.515146091500
C   -1.846298689600  1.632628440200 -0.963027061200
C   -1.824123964400  2.853246753600 -0.295464736500
C   -0.974866184900  3.868521655200 -0.692805079100
C   -0.123143711000  3.677292367400 -1.767037167000
C   -0.124352361900  2.462519501100 -2.427971045000
C   -0.982613570600  1.450061296400 -2.034221002500
C   -3.196722490700 -0.446399022900 -1.579474825200
C   -4.468122739700 -1.369102848200  1.334051166100
C   -3.903391841700 -2.612459443000  1.082552602500
C   -4.698177277100 -3.696962364600  0.760465754900
C   -6.074628515600 -3.552095035800  0.691634488000
C   -6.647669585400 -2.317831944100  0.944855383400
C   -5.848087339900 -1.232837999500  1.263574954100
H   -2.664098106000 -1.338759657200  3.294950466600
H   -3.927532287300 -0.229561898900  3.830117933600
H   -2.336882068800  0.397153625800  3.355745668400
H   -4.208239865400  0.719612587200  1.667178736800
H    0.229968238800  2.811325584900  2.265910802800
H    1.844975337300  4.403467982900  1.274320543800
H    3.310081990500  0.240503962800 -2.046331270500
H    4.731252753600  1.869066566600 -3.185801924700
H    4.868671946500  4.197225149300 -2.377143175200
H    3.496094311500  4.910432235000 -0.455116298400
H   -0.035006271300 -3.400406606000 -1.024827757000
H    2.177840794700 -4.512310423200 -1.144891460700
H    4.577050089000 -4.450622072100 -0.744194494600
H    6.589713733600 -3.250588432300  0.024815484300
H    6.402637267300 -0.917634702200  0.809732958600
H    4.256164403000  0.245811155700  0.746529000900
H   -3.787521752000  1.159802966800 -0.319948150500
H   -2.490073705300  3.009125908400  0.542593958900
H   -0.982548480100  4.812895748000 -0.167880497800
H    0.538920992700  4.468544187600 -2.086184314100
H    0.543610449500  2.302320329000 -3.262240087100
H   -0.972182445000  0.514995033100 -2.571268286700
H   -3.473560975400  0.052797698400 -2.505765418900
H   -2.354057385000 -1.103736615500 -1.763856829500
H   -4.036278667800 -1.050571633800 -1.243329396900
H   -2.827805015500 -2.721675814700  1.128334972900
H   -4.244491311000 -4.657640726100  0.563842048200
H   -6.697156189400 -4.398345311800  0.440269776900
H   -7.720101368300 -2.197406750300  0.891772301900
H   -6.301901366800 -0.270659097400  1.458010013900
