70
-106.10633916
C   -3.096636908100  0.581101440900  3.058814334900
C   -3.241222332100  0.427271140600  1.544127720300
N   -1.938280097700  0.560144656200  0.888086227700
P   -0.862530403000 -0.693711224200  1.150028269100
O    0.429013721800 -0.016470157900  1.983640793000
C    1.351600428700  0.858061009900  1.476984168600
C    2.193397409600  0.520060351900  0.433211688600
C    1.464857431200  2.107976974800  2.117269305300
C    2.360453300500  3.035846840200  1.675073658100
C    3.150643992200  2.781511029900  0.534090075000
C    3.061050846700  1.514998162700 -0.102130465500
C    3.808734644800  1.305525848300 -1.281574666800
C    4.634514369700  2.278009823000 -1.774086354600
C    4.757499787700  3.510727890000 -1.116093796800
C    4.023475800000  3.757558733800  0.010030140500
O   -0.189233254200 -0.688675724200 -0.368046715600
C    0.978132057400 -1.412035430000 -0.501195422300
C    0.913669980300 -2.694335690300 -1.070845888100
C    2.054730116800 -3.422174437300 -1.242038419700
C    2.176078159900 -0.853096685800 -0.108265773400
C    3.361565679200 -1.638510483000 -0.195151557000
C    3.297080930600 -2.926306089800 -0.791796808200
C    4.475140042000 -3.695309555500 -0.898630554600
C    5.663013807500 -3.233080544200 -0.405896577200
C    5.716933674000 -1.985323195900  0.232649500000
C    4.596536952700 -1.208118894900  0.336475527200
C   -1.723630368900  1.698397841300 -0.002240995600
C   -2.728914608200  1.668080207800 -1.136601994800
C   -3.793634489200  2.555047499000 -1.235769666600
C   -4.703612053500  2.451988250200 -2.276266998200
C   -4.564833390400  1.461425318300 -3.231939448200
C   -3.505146516100  0.573152856900 -3.143744791800
C   -2.598565010800  0.678163369400 -2.105828673200
C   -1.695982694300  3.017183438500  0.771000058500
C   -3.892362280900 -0.877403062200  1.141518342600
C   -4.760925714500 -0.896774140700  0.056120982500
C   -5.333552176500 -2.079687683500 -0.376460992800
C   -5.051120182400 -3.266875055100  0.277132741100
C   -4.199766026100 -3.257316538900  1.368634371400
C   -3.625949477400 -2.073001356200  1.798572969100
H   -2.802168780900  1.598838875700  3.304048839500
H   -2.325559431500 -0.090568250500  3.429876259800
H   -4.039129392000  0.356811702200  3.553290804400
H   -3.873060209700  1.237808060000  1.165763979000
H    0.838386376300  2.290123744200  2.978381169000
H    2.458240780900  3.986170781100  2.179426679600
H    3.711852516500  0.365639498400 -1.803887584000
H    5.195428858300  2.100912696700 -2.680266015100
H    5.423080912500  4.263379824400 -1.512750105300
H    4.091457867900  4.711103580500  0.514321200900
H   -0.053806361400 -3.071243260000 -1.368084755500
H    2.016750816500 -4.400035932800 -1.699050552800
H    4.414489738800 -4.666019615700 -1.369769929300
H    6.560207901700 -3.828648264800 -0.489861911800
H    6.652510382200 -1.640910569000  0.648628093000
H    4.647482250200 -0.255685954700  0.841601159300
H   -0.730201601500  1.552172301100 -0.442437696600
H   -3.925981427800  3.339554034400 -0.506572230500
H   -5.526817957400  3.149916894400 -2.335926277300
H   -5.277018502800  1.381771521800 -4.040500780300
H   -3.385999266900 -0.203874323800 -3.885210707500
H   -1.777194876200 -0.018783257100 -2.033668353500
H   -0.881358778200  2.994939605600  1.490008200200
H   -1.526493263000  3.842253619800  0.082703651600
H   -2.624581055700  3.187547959500  1.309543401100
H   -4.989380464700  0.024539473600 -0.459898504700
H   -6.003273776700 -2.071411452500 -1.224432173100
H   -5.496361032400 -4.192441819800 -0.058080324100
H   -3.980743316700 -4.177146780400  1.891596717700
H   -2.974352577900 -2.086967198400  2.657800353400
