70
-106.09991232
C   -3.059193727500 -2.742480366400 -1.797419538000
C   -3.046740262900 -2.034754148000 -0.441928533400
N   -2.051626948000 -0.962546741900 -0.404010211100
P   -0.702811914400 -1.370591751400  0.507945212500
O   -0.077034070700  0.050485565600  1.058037498400
C    0.842326088600  0.889464021000  0.479395120800
C    2.056403279500  0.463075567500 -0.025019603100
C    0.512381186000  2.260283799600  0.500390524400
C    1.349487550300  3.186315571700 -0.045012892600
C    2.536726353400  2.784475786200 -0.693252823300
C    2.887966495700  1.409292923900 -0.697632606100
C    4.034049984400  1.018265018900 -1.423813919600
C    4.815076664600  1.942479650100 -2.061515741700
C    4.494237941600  3.306576074000 -2.009227436100
C    3.371774274900  3.715305823600 -1.345254885700
O    0.383649557900 -1.659540538300 -0.747878405600
C    1.653327941400 -1.956010852800 -0.313280805100
C    2.067086540800 -3.299511161700 -0.300544194500
C    3.314355157800 -3.627460140000  0.142779406800
C    2.490270567800 -0.940946020500  0.102395558400
C    3.755471189300 -1.279076984200  0.664518866700
C    4.175234424300 -2.636164213000  0.661342043400
C    5.435326665600 -2.969020062900  1.201080286100
C    6.236465447500 -2.011591632500  1.757172986900
C    5.799179961700 -0.680011746200  1.811713238800
C    4.591048082700 -0.322057934800  1.280262552000
C   -2.315690563000  0.228461949000 -1.193192711500
C   -2.646380815400  1.444014288500 -0.344434607900
C   -2.826216620800  1.353922303400  1.028514016400
C   -3.165412261300  2.467878924700  1.777404193000
C   -3.334429284900  3.696102375400  1.163033004400
C   -3.170181119200  3.796291508500 -0.208425584500
C   -2.836159867200  2.680435340600 -0.954305423900
C   -1.190320856600  0.503126019700 -2.198505392900
C   -4.398123262700 -1.530255302600  0.014284968900
C   -4.642728701900 -1.443555759300  1.381094061300
C   -5.837733155400 -0.941641130200  1.861566014700
C   -6.815065174600 -0.516712073500  0.977058222000
C   -6.589749286500 -0.610677605600 -0.384478554100
C   -5.391981876500 -1.115873446200 -0.862865500100
H   -3.280915176200 -2.056306278300 -2.610251365300
H   -3.802054224000 -3.536557473300 -1.794012404200
H   -2.077959909600 -3.175085956000 -1.980102047200
H   -2.699907640100 -2.766288498500  0.302240519300
H   -0.420125299700  2.544414635100  0.961296179800
H    1.095870865100  4.235580596100 -0.011909029200
H    4.284396101700 -0.029708973100 -1.487193891200
H    5.684709824900  1.621503000800 -2.616301969200
H    5.128708537800  4.024274639200 -2.508355941300
H    3.096240365500  4.759969218800 -1.317624739100
H    1.374502852800 -4.048710112100 -0.654339163800
H    3.646569490600 -4.655202717900  0.133281961300
H    5.748378536100 -4.003160302700  1.176789952300
H    7.198917058700 -2.274669398700  2.170972860300
H    6.422942011100  0.065606315900  2.282925363300
H    4.259294782600  0.703315222400  1.340849358500
H   -3.222717484600  0.012208755500 -1.772519259400
H   -2.690851778600  0.404662814900  1.523724688000
H   -3.295597242100  2.372075993700  2.846001908300
H   -3.595346023600  4.567241210900  1.746400858500
H   -3.306474097200  4.748184903900 -0.701652427200
H   -2.726435508600  2.778817154100 -2.023779359100
H   -0.320817087000  0.930121973300 -1.706019756700
H   -0.896498129400 -0.429941275900 -2.673574075500
H   -1.522057590400  1.193448041800 -2.969730290900
H   -3.881902383900 -1.778354329100  2.073641447400
H   -6.007409141600 -0.882593192000  2.926919468400
H   -7.749330604300 -0.121082945800  1.347725757900
H   -7.350391364000 -0.290230149500 -1.081884759300
H   -5.248272543600 -1.191503380100 -1.930124903200
