70
-106.09938718
C   -3.708953318200 -1.247525941100  2.529032251300
C   -3.335164268400 -0.491164414300  1.252986901600
N   -2.128203709200  0.328966401700  1.398136694400
P   -0.762565270800 -0.527765666900  1.961403825800
O    0.417236793000  0.623462771300  2.054417109100
C    1.102275821900  1.187474015200  0.996731180300
C    1.813712273800  0.436881234800  0.080529573700
C    1.129625219600  2.595156980800  0.945782693500
C    1.787515644000  3.244861471500 -0.056445855100
C    2.406369356600  2.517279945600 -1.093748478400
C    2.412298822600  1.098995583100 -1.031967000100
C    2.976368666900  0.387104638900 -2.113300471800
C    3.543141517500  1.044284023700 -3.170293544100
C    3.578353139300  2.446233767000 -3.204471435300
C    3.013532961500  3.165927614100 -2.189416125600
O   -0.407784846400 -1.172473160700  0.469063286300
C    0.815249721900 -1.794507314600  0.391235880100
C    0.880896535700 -3.195592110700  0.462457227400
C    2.089435263600 -3.825222590300  0.393749102400
C    1.949650947800 -1.025501574000  0.236760194100
C    3.223433589200 -1.661374057000  0.256066535300
C    3.285602149400 -3.079813141500  0.316477499100
C    4.546103434800 -3.713576802300  0.320491930600
C    5.700450552800 -2.982382710400  0.300585211800
C    5.640624953000 -1.580866732800  0.292402213600
C    4.434861537400 -0.936249560500  0.271080847000
C   -2.316245444000  1.745098488700  1.692220108300
C   -2.883895700400  2.422736240600  0.460270982500
C   -4.173310040600  2.932164444700  0.385761491100
C   -4.633025817600  3.517815480900 -0.783645277900
C   -3.812442273600  3.603841422000 -1.893889798000
C   -2.524428013900  3.095919006100 -1.831551030800
C   -2.069472882600  2.509343911800 -0.665779343600
C   -3.092722581000  2.029085645800  2.979617788700
C   -3.159136332700 -1.405306382600  0.055010563000
C   -3.106560062200 -0.826075970800 -1.208602561600
C   -2.912693329400 -1.596038073100 -2.339696267600
C   -2.778282909500 -2.969993854400 -2.229065116500
C   -2.842252124100 -3.558842137900 -0.979358303400
C   -3.029532578900 -2.783969510000  0.153723542700
H   -3.898467442600 -0.554205302900  3.343116604600
H   -2.895539155100 -1.903711957900  2.831262718100
H   -4.606075075800 -1.839343926900  2.359464945800
H   -4.148031988200  0.203853796600  1.005431164300
H    0.632894296200  3.146098188400  1.731033657500
H    1.816303785000  4.324183296000 -0.079637395700
H    2.941170436300 -0.691662696600 -2.106899116900
H    3.964149917300  0.481992658400 -3.991020419700
H    4.040346582800  2.948386822100 -4.041843548000
H    3.011639266900  4.246391944300 -2.212989051400
H   -0.044699241700 -3.741497394000  0.561873933800
H    2.147851062900 -4.903263417400  0.427749949900
H    4.578646656500 -4.793348170900  0.351829670200
H    6.661620937000 -3.475173147700  0.306298502300
H    6.557435803500 -1.009691667800  0.307723326700
H    4.400845074400  0.142593788900  0.278234180800
H   -1.309830841600  2.146856511900  1.837718330100
H   -4.833591307600  2.883817816000  1.237885830700
H   -5.640030835800  3.907997876200 -0.824171732400
H   -4.173254886700  4.062354642900 -2.803122623900
H   -1.873042230600  3.154605316100 -2.691896459600
H   -1.069256462300  2.102031932300 -0.622935518000
H   -4.109155056800  1.647725279200  2.939064150300
H   -2.577023161600  1.562767205700  3.817776361400
H   -3.129907536500  3.103431016000  3.148865048900
H   -3.207422665900  0.245629112100 -1.300033058200
H   -2.867111594100 -1.122186671500 -3.310265585700
H   -2.624849496200 -3.576347713000 -3.110358724700
H   -2.740947005200 -4.631106747100 -0.882216252800
H   -3.066657432300 -3.272859732900  1.114820005600
