70
-106.10648033
C   -3.333553131400  0.468049652500  3.065316646000
C   -3.339015373600  0.363801920600  1.539982414200
N   -1.995930395900  0.588403028700  1.001800475200
P   -0.874920496900 -0.612952309200  1.306619426900
O    0.414253513700  0.162305988400  2.041055729400
C    1.340771522300  0.977462026500  1.446687792200
C    2.156395352000  0.550947346400  0.414323688800
C    1.491114524100  2.266999532300  1.994508598400
C    2.387923042300  3.147292078000  1.467132719200
C    3.144399056800  2.801257796200  0.327352846400
C    3.021953486200  1.493826920200 -0.212781067700
C    3.734130851500  1.190131600600 -1.393676150800
C    4.557942513700  2.113025023000 -1.976719617700
C    4.714935293300  3.387427808700 -1.412249883300
C    4.015033886300  3.724602108600 -0.287785426600
O   -0.248809291300 -0.698116254500 -0.233598933500
C    0.910531269200 -1.434366513100 -0.352543746000
C    0.826154630100 -2.752448084500 -0.830874463500
C    1.959655140200 -3.496930665900 -0.978238779100
C    2.119673626500 -0.856833933000 -0.027048042400
C    3.299487032800 -1.653508189200 -0.087064972600
C    3.214688743100 -2.978809062000 -0.591994158600
C    4.386210596800 -3.760766073900 -0.672851478600
C    5.587660388100 -3.273416483100 -0.240836706900
C    5.662481461200 -1.985377658300  0.309354601300
C    4.548476364200 -1.195841310700  0.385612512200
C   -1.763443330900  1.764462419400  0.167039735100
C   -2.678815772600  1.747936658000 -1.041501787700
C   -3.783655531400  2.581180245200 -1.168749075600
C   -4.608722814500  2.496291531300 -2.279135316400
C   -4.343974872900  1.577762330900 -3.279170033700
C   -3.243285471700  0.744373119000 -3.164059520800
C   -2.421318860100  0.831234851300 -2.056105628600
C   -1.848636183900  3.049803285600  0.991043554300
C   -3.870611269400 -0.959497439400  1.035270699100
C   -3.580830623700 -2.163362009400  1.666846366800
C   -4.028694337100 -3.362444692600  1.139217288000
C   -4.775209665500 -3.378818481000 -0.026464822400
C   -5.081277456600 -2.184409830800 -0.655844753900
C   -4.634968252400 -0.986879303300 -0.125596451300
H   -4.302723727600  0.180564533600  3.466701731200
H   -3.113468613800  1.488892020500  3.368549279900
H   -2.564408168700 -0.178648505000  3.481402189200
H   -3.981786090700  1.152249248400  1.134522642900
H    0.890267484000  2.519907552100  2.855605363800
H    2.512786329400  4.128146785100  1.902015610800
H    3.610635011700  0.217358348200 -1.845312548800
H    5.090600783100  1.863673737800 -2.882937778700
H    5.378811586200  4.100079500300 -1.879365203100
H    4.108505443100  4.710640243800  0.144805626500
H   -0.150657581700 -3.141583511300 -1.077908443500
H    1.906892623000 -4.503695811500 -1.365801614900
H    4.309919912000 -4.761153556600 -1.074540290800
H    6.479808233000 -3.878984210300 -0.304663490900
H    6.609171531100 -1.619155992800  0.678997932100
H    4.615846108400 -0.211562888200  0.823279528100
H   -0.734408984900  1.670499612800 -0.201630648100
H   -4.013998977200  3.310318582900 -0.407212175300
H   -5.464386252600  3.151856885300 -2.359031847500
H   -4.989895913100  1.511986228300 -4.142759376600
H   -3.025061098700  0.024087028300 -3.939526215700
H   -1.569098472800  0.174933953600 -1.965441315800
H   -1.650131342600  3.909552380000  0.355044395300
H   -2.825491570900  3.165444078100  1.453093800500
H   -1.101340428600  3.020989263000  1.778996176500
H   -3.010136805400 -2.173274379200  2.581922616600
H   -3.793078416300 -4.288628309700  1.643523075000
H   -5.121026703900 -4.315817926500 -0.438538864800
H   -5.670320983200 -2.182206973100 -1.561790759300
H   -4.879371478600 -0.060261201100 -0.624621505900
