70
-106.10643195
C   -1.859038725600  3.052752323600  0.762040010000
C   -1.794194692500  1.713741185900  0.026537529900
N   -1.981479354500  0.593311296900  0.945089907400
P   -0.845344105100 -0.585958546400  1.280613138300
O    0.436573113900  0.221072162200  1.999507529200
C    1.340093511300  1.045040623100  1.383894188800
C    2.163805358800  0.611930395600  0.360849618600
C    1.457088365100  2.352486594300  1.896098656000
C    2.331954766500  3.239986091800  1.344129463100
C    3.098492277600  2.881313356100  0.215032279500
C    3.008097206400  1.557351748400 -0.290337468100
C    3.730482493400  1.238961184000 -1.461142513500
C    4.534347384100  2.164876074000 -2.066753799200
C    4.659372019900  3.457487561500 -1.536679904600
C    3.948426863700  3.808215326800 -0.423356416500
O   -0.218227378800 -0.698120203000 -0.255302323800
C    0.955838728000 -1.414762962400 -0.356402801500
C    0.896634215300 -2.744808503600 -0.804243722000
C    2.043938267000 -3.471163964800 -0.934595505900
C    2.153952650800 -0.806907368000 -0.045553117100
C    3.348267428600 -1.582801357700 -0.086350709800
C    3.288680811600 -2.921018974700 -0.559795478300
C    4.474576568100 -3.682852127300 -0.621007329700
C    5.666075105200 -3.163349183700 -0.199059095600
C    5.716372762200 -1.861328732600  0.320225323900
C    4.587973441400 -1.090758860700  0.376138787300
C   -3.296182745300  0.402004520800  1.561335302300
C   -3.834670610300 -0.961404026300  1.187817411800
C   -3.528674407200 -2.105030872800  1.916273493000
C   -3.987430259000 -3.345627825100  1.507294758100
C   -4.760276118800 -3.464450735700  0.364994360300
C   -5.081677902800 -2.330165071000 -0.360671661300
C   -4.625216986700 -1.090813691400  0.051526968800
C   -3.219963211800  0.626551164300  3.071920784100
C   -2.758114214500  1.605795840800 -1.138567984500
C   -3.884582601400  2.408933726000 -1.269496150500
C   -4.755179884600  2.236801446100 -2.334085316600
C   -4.514747673500  1.259926145700 -3.283746027300
C   -3.392489722400  0.456230419400 -3.165063442900
C   -2.525257741700  0.629954940300 -2.102729984700
H   -2.814045473600  3.190207637500  1.262168708000
H   -1.705041413400  3.866899039600  0.057304579400
H   -1.073011123900  3.089794290800  1.511141333800
H   -0.780111677600  1.603292213700 -0.376483292800
H    0.849452397200  2.613349415500  2.750246075600
H    2.431659715000  4.235632438800  1.751123973800
H    3.631496903300  0.251636700900 -1.886465884200
H    5.075934280100  1.903665158200 -2.964308689500
H    5.307584667900  4.172790464000 -2.021423480200
H    4.017349286200  4.807565957200 -0.017499296400
H   -0.072363368300 -3.158283858600 -1.042187925400
H    2.010106966700 -4.487284369000 -1.299130508600
H    4.417340694700 -4.693673839600 -0.999023947500
H    6.569263886200 -3.753815357900 -0.247218452000
H    6.655565765900 -1.469148228900  0.682267278700
H    4.636346509100 -0.095121094000  0.790018894600
H   -3.966271860400  1.150510402700  1.125495793600
H   -2.935891139200 -2.034637645100  2.814442013200
H   -3.739180549400 -4.223778145500  2.085934408200
H   -5.114349402700 -4.433921922400  0.045473144300
H   -5.691098470200 -2.407566899800 -1.249683364900
H   -4.882550689500 -0.211630690100 -0.521222709000
H   -3.007335940500  1.671710973500  3.283951958900
H   -4.162114231300  0.354749917000  3.542574803100
H   -2.417438400600  0.028059475300  3.497470411300
H   -4.096547992400  3.181784218100 -0.546649349100
H   -5.627344264200  2.869773988100 -2.417534063800
H   -5.196350388100  1.125920763000 -4.111266095400
H   -3.193211219300 -0.308767828600 -3.901838045700
H   -1.655927283400 -0.003035445800 -2.007688009000
