70
-106.09981202
C   -1.393169117300  2.181081511500  0.149201478800
C   -2.596094319200  1.252064293600  0.011786083200
N   -2.319791729800 -0.146791242600  0.333877529200
P   -0.891176814800 -1.028217031900  0.331140019500
O    0.009360269800 -0.338045778900  1.544011919200
C    1.022141626800  0.577555804100  1.494490251600
C    2.044566072500  0.558357183400  0.564129017900
C    1.006781519900  1.541302815400  2.525641789700
C    1.956584115100  2.514978259900  2.588712315400
C    2.938855859400  2.618027501200  1.580937268700
C    2.974147585200  1.643240650100  0.549984451700
C    3.907937068400  1.817573491900 -0.494816222700
C    4.791602307400  2.861690561500 -0.486472936900
C    4.791085142900  3.789553547600  0.564694759100
C    3.874702176300  3.672656449400  1.571956870300
O   -0.119643565400 -0.352684812600 -0.989728993500
C    1.121510666000 -0.919478498400 -1.196845656200
C    1.252182223600 -1.889236990500 -2.204829881500
C    2.455345222000 -2.494602597900 -2.417936626200
C    2.189110201900 -0.541339240800 -0.409559620100
C    3.422780890900 -1.244203588400 -0.550593487300
C    3.557316845200 -2.211894882300 -1.581787550900
C    4.783491417000 -2.893075419800 -1.732204552100
C    5.824987386400 -2.662669149500 -0.877888128800
C    5.673893212000 -1.751084121100  0.177094742000
C    4.504580761000 -1.060114642700  0.337513028100
C   -3.482227424900 -1.034638732400  0.121352287000
C   -3.305931090000 -1.792760202700 -1.174777660800
C   -2.655854829700 -3.020404188000 -1.234792530800
C   -2.432991251000 -3.642219635000 -2.451275741600
C   -2.853828922000 -3.048305218700 -3.629101850100
C   -3.515318939300 -1.833432266900 -3.580702207500
C   -3.743136415700 -1.217046938700 -2.362636153000
C   -3.701281430800 -1.927411751000  1.338904217800
C   -3.683790508300  1.764347833400  0.933694287200
C   -3.587777746300  1.543275496300  2.302126159300
C   -4.555890245700  2.027244097500  3.162567545600
C   -5.631896497400  2.743857302600  2.664020193700
C   -5.732772325300  2.972789196300  1.302542468900
C   -4.763586471500  2.484560429800  0.442187215200
H   -1.038758705600  2.200476273000  1.175437636800
H   -1.698832135100  3.189487867000 -0.125951042700
H   -0.583696232500  1.875731334200 -0.506944865800
H   -2.946568433400  1.312491171100 -1.031444750100
H    0.224854407100  1.467785316400  3.267190783000
H    1.949988816400  3.236134692500  3.392767821700
H    3.910150861000  1.122061158700 -1.320274353600
H    5.494147892300  2.978550439300 -1.298855522200
H    5.504447304600  4.600647203000  0.562474311800
H    3.842692797700  4.395307195100  2.374997856500
H    0.378111762500 -2.126381238600 -2.792623234000
H    2.570292207300 -3.223599882400 -3.206476805600
H    4.876331031600 -3.613526919200 -2.532361256000
H    6.759828332800 -3.190260848500 -0.997962969100
H    6.488698870200 -1.599635011900  0.869995703600
H    4.396231691800 -0.372122747000  1.161977972300
H   -4.361170818300 -0.387661605600  0.020030347200
H   -2.327457993700 -3.504791082000 -0.328886519200
H   -1.924950026800 -4.595591715200 -2.477971330500
H   -2.672463056900 -3.531516968500 -4.578348545600
H   -3.857490534100 -1.364923361000 -4.492618969400
H   -4.271940094600 -0.274068726400 -2.334799951200
H   -4.474668889700 -2.662638457100  1.128917053800
H   -2.781116778000 -2.437750569300  1.611634678300
H   -4.013803126400 -1.316727685400  2.182509807400
H   -2.749605423800  0.977155413800  2.682193193800
H   -4.472210191600  1.846385759500  4.224756883200
H   -6.389432715800  3.122190335700  3.334831425500
H   -6.569436369400  3.531026910900  0.907619232200
H   -4.846563403400  2.666671144900 -0.620922726500
