70
-106.10039276
C   -4.283543217700 -0.152798834400  1.574132421900
C   -3.738803834200 -0.570545029600  0.211097179000
N   -2.517453653800  0.165845913400 -0.139632551800
P   -1.187759861600 -0.555080756600  0.587959540800
O   -0.224152550400  0.687438127000  1.131671086300
C    0.874974203100  1.273719578100  0.565355706100
C    1.907894878800  0.575599761100 -0.032306335000
C    0.934378046200  2.679456074800  0.687210009900
C    1.978922467500  3.383234196300  0.168890675900
C    2.990440319000  2.725319482800 -0.562356374100
C    2.944557091600  1.312075222900 -0.682958732200
C    3.911339823800  0.685005919400 -1.499167146800
C    4.898623779500  1.409154584300 -2.108909279400
C    4.974574496000  2.798856879400 -1.938174666000
C    4.031403290800  3.442536139700 -1.187242602000
O   -0.314045782300 -0.959863645500 -0.778852513300
C    0.853588692900 -1.618042888900 -0.456755527900
C    0.884078936700 -3.019147399200 -0.557348886700
C    2.014033112500 -3.703465038800 -0.219043673700
C    1.948918645700 -0.898597804500 -0.026719217700
C    3.098829709800 -1.608573006200  0.429305181100
C    3.134307076900 -3.023287955800  0.306320508000
C    4.279513834100 -3.723982968600  0.739466443700
C    5.333521653600 -3.065313876900  1.307827744700
C    5.275198887400 -1.675192443800  1.483984031600
C    4.187150081100 -0.964942499200  1.057186178800
C   -2.695040909100  1.331337896700 -0.990927946700
C   -3.173393424200  2.558840539500 -0.239649907200
C   -2.755565805800  2.828696188900  1.055754289200
C   -3.177592829300  3.973896917000  1.708670448400
C   -4.024158095600  4.865927326500  1.072476672000
C   -4.448797635100  4.603574054400 -0.219354651600
C   -4.026602824600  3.457160907000 -0.869176589000
C   -1.442237566200  1.688551631100 -1.792118546200
C   -3.436701409700 -2.049626377400  0.088201576300
C   -3.118641647800 -2.540770322900 -1.175894611100
C   -2.809822865900 -3.874272108800 -1.365799170000
C   -2.819439840900 -4.747585606100 -0.290025040400
C   -3.142262276200 -4.272789352100  0.968789291900
C   -3.451305964800 -2.935757845400  1.157699184100
H   -4.557304804400  0.899379665500  1.551803805300
H   -3.521259467000 -0.293572796000  2.337488282700
H   -5.165878061500 -0.737000391900  1.824434600800
H   -4.496606225600 -0.326079750900 -0.546117110300
H    0.128024793900  3.173828288100  1.207610832800
H    2.025606431900  4.456100772400  0.284527494000
H    3.856729430600 -0.381639624600 -1.654586658400
H    5.625031463500  0.909578768000 -2.733338529300
H    5.768764756800  3.353724006500 -2.415838713700
H    4.059012186900  4.516469009600 -1.068760689500
H   -0.006555366200 -3.519063024800 -0.906833254600
H    2.053140574800 -4.778487351800 -0.315580819700
H    4.299247830500 -4.798258832400  0.623380854900
H    6.206044406600 -3.609230159400  1.638895325500
H    6.096723818400 -1.165184722000  1.965660697300
H    4.148373996100  0.102664139300  1.211065497800
H   -3.475056014600  1.065285804600 -1.722741122400
H   -2.106091502400  2.127341099600  1.557940396200
H   -2.845410073900  4.169047266200  2.718655262900
H   -4.354780507500  5.759493641900  1.581854232200
H   -5.113715061600  5.291957354000 -0.721222397100
H   -4.364634022200  3.256286742700 -1.876849873900
H   -0.664544942800  2.086147199500 -1.147386980000
H   -1.061956925300  0.809956845200 -2.306971280300
H   -1.694008727100  2.449973014900 -2.528156768900
H   -3.108603081000 -1.862760572900 -2.017687628000
H   -2.562946309100 -4.233710958500 -2.355072999300
H   -2.576480399300 -5.790466464100 -0.433654664300
H   -3.153459981600 -4.946748606900  1.813170909800
H   -3.698391350000 -2.590670844600  2.148639689000
