70
-106.09979482
C   -3.826866170500 -0.167093239400  2.115191723100
C   -3.573575219500 -0.371508885400  0.624453596500
N   -2.314326479300  0.284099987200  0.215634199400
P   -0.987300829600 -0.507903138700  0.866277825800
O    0.018212557700  0.714955587500  1.373448191700
C    1.095845428800  1.293103302400  0.764001849100
C    2.086992554700  0.586519743500  0.108871308800
C    1.183204569300  2.695265272100  0.900582753500
C    2.206619268400  3.391389249500  0.332516805300
C    3.164481312700  2.727650496400 -0.463145963400
C    3.096189201300  1.315779677000 -0.590980719100
C    4.009943245900  0.683922124700 -1.462544278400
C    4.968825551100  1.401960373200 -2.122837697600
C    5.068138110100  2.789755159300 -1.949060793800
C    4.176130079900  3.437981194900 -1.141519056600
O   -0.183825055800 -0.946413106900 -0.531961295800
C    0.997732345200 -1.606121214200 -0.262405965500
C    1.019520539500 -3.006929734900 -0.367673037200
C    2.162341671900 -3.695329446400 -0.085552801800
C    2.115223981800 -0.888940082600  0.110968348100
C    3.283298493000 -1.604009637200  0.510601359300
C    3.308200338800 -3.018862348300  0.386388614900
C    4.470639005800 -3.723639131700  0.763435543900
C    5.553306387000 -3.068633306500  1.279670677600
C    5.508365238700 -1.678300349300  1.457936326000
C    4.403359676900 -0.964261037000  1.084303202900
C   -2.470729744900  1.166102904800 -0.939168645400
C   -3.399827368300  2.304307629600 -0.568992705000
C   -3.186703512000  3.012494481300  0.607169252600
C   -4.006593836500  4.072210603700  0.948741137800
C   -5.050281552700  4.438938258200  0.114324249500
C   -5.267999020800  3.740412609100 -1.060787083000
C   -4.446813926900  2.678018177400 -1.399805733200
C   -1.170689022400  1.771420714200 -1.460839371400
C   -3.544222282500 -1.821792129900  0.198075817500
C   -3.045890846800 -2.828145453900  1.017779644300
C   -2.958315917800 -4.131908286600  0.560722668900
C   -3.364711769500 -4.452957202100 -0.723347022800
C   -3.873485553900 -3.461612068300 -1.544620202000
C   -3.966282533500 -2.160235314300 -1.083044033500
H   -4.683227494900 -0.757159962100  2.433417428300
H   -4.031144617500  0.883831143000  2.305764396200
H   -2.953526081000 -0.454032298000  2.695396196800
H   -4.382829484500  0.126560088700  0.078224630500
H    0.418675727600  3.190718063900  1.480933504900
H    2.277866186100  4.461739700500  0.458616406100
H    3.936012672300 -0.381395271800 -1.620038354900
H    5.654041508700  0.899005676800 -2.789703262500
H    5.839327813300  3.339760061100 -2.468217367600
H    4.222143427100  4.510775522400 -1.018496200600
H    0.113119036500 -3.503676557300 -0.679705366600
H    2.194090413500 -4.770102384700 -0.187172134700
H    4.480880532500 -4.797969634100  0.646682393400
H    6.438958851300 -3.615575686600  1.568084424600
H    6.354013262100 -1.171010674200  1.898967785400
H    4.375994740400  0.103361840900  1.240051432100
H   -2.919389517900  0.586471756100 -1.762157881000
H   -2.376322807300  2.714279818400  1.256829272600
H   -3.832722654600  4.614280785300  1.867418504200
H   -5.692323822700  5.266128153000  0.380014965700
H   -6.080831168000  4.021057577300 -1.715164646900
H   -4.620539012100  2.135620645200 -2.319550475100
H   -1.397754717600  2.382506235500 -2.333242939700
H   -0.713082328400  2.408341737100 -0.709848857600
H   -0.468079175200  0.997656692700 -1.754953666300
H   -2.731416947600 -2.601450371700  2.024140181400
H   -2.567839906300 -4.900586445400  1.212185914300
H   -3.290106730700 -5.469966808900 -1.080441617200
H   -4.201861205400 -3.701610056400 -2.545926109300
H   -4.375726536700 -1.395340531300 -1.728753262400
