70
-106.10372413
C   -4.338801054000 -2.852762104200  0.618052074500
C   -3.404592592600 -1.765122995400  1.145067165900
N   -2.363464963400 -1.389887006800  0.186715210800
P   -0.845147222200 -1.918009049200  0.675786786400
O   -0.142695840800 -0.632546707600  1.504376023800
C    0.508201544300  0.453508829100  0.990987550200
C    1.590373159100  0.339088390800  0.138675488100
C    0.083213811400  1.715087004500  1.450129284800
C    0.715886176500  2.850680092800  1.043962334500
C    1.751038569600  2.791003521800  0.088043487800
C    2.174243556000  1.525200237400 -0.393470272900
C    3.138927084300  1.493051846200 -1.423662420400
C    3.692296964500  2.645864823000 -1.908723410300
C    3.313538058900  3.892309232100 -1.389553745000
C    2.356702583500  3.960184004200 -0.416006830900
O   -0.072742040000 -1.739593181300 -0.764251108200
C    1.290127064500 -1.972001539200 -0.683443349900
C    1.776824081000 -3.219892991000 -1.105850537700
C    3.112839799000 -3.489333793500 -1.046171753600
C    2.132047383300 -0.987102962800 -0.212711900700
C    3.514986940000 -1.293979396500 -0.046015022400
C    4.007766196900 -2.549622466900 -0.491886260200
C    5.379864364300 -2.843939474300 -0.344989819400
C    6.228438654300 -1.955696204800  0.253408755600
C    5.732449281600 -0.740250048100  0.747526336900
C    4.411579708500 -0.417071409100  0.602386240200
C   -2.784724150000 -0.792672476900 -1.079511062100
C   -2.063116717700  0.512935520400 -1.349673832700
C   -1.028996764500  0.640566499500 -2.267584386700
C   -0.441972297600  1.871849825300 -2.503304277500
C   -0.883563564700  2.998458914400 -1.833671739200
C   -1.909238410100  2.882637022000 -0.911629696700
C   -2.489966509600  1.651269022600 -0.672968905600
C   -2.709150697800 -1.782460845700 -2.244956033600
C   -4.110434850300 -0.526592837600  1.653396902600
C   -5.370638164500 -0.132576075800  1.222002716100
C   -5.941599834800  1.039659522100  1.692604913600
C   -5.262591135400  1.833503065300  2.599482194300
C   -4.006732095800  1.446867375200  3.040298528900
C   -3.439670312100  0.277016232300  2.570511877800
H   -5.062185521000 -3.115212377100  1.386661556700
H   -3.753597909800 -3.736101109600  0.371278968100
H   -4.873735855500 -2.533523818500 -0.271650067300
H   -2.855550933800 -2.190498783300  1.998316150100
H   -0.745041148500  1.746463206200  2.141085150100
H    0.408026653800  3.813791135600  1.423888455500
H    3.429101514700  0.541083102600 -1.842207119200
H    4.424164826300  2.600633359500 -2.702349011900
H    3.769764225800  4.792508138500 -1.775117201300
H    2.034799337100  4.915306666000 -0.025329480400
H    1.068074950500 -3.944024276000 -1.479328758600
H    3.496591659800 -4.437991690300 -1.391251125000
H    5.742920339400 -3.796055072100 -0.704906921400
H    7.277097642200 -2.189226969200  0.365189165600
H    6.401861375200 -0.058139445900  1.251069505000
H    4.039179101800  0.514630251100  0.999783906000
H   -3.840160462000 -0.526514928500 -0.936472902900
H   -0.671640412600 -0.220334990800 -2.809712574700
H    0.363031723400  1.951399467600 -3.219927097200
H   -0.429801382600  3.958821407100 -2.029192768700
H   -2.264655137700  3.753995811300 -0.380552290500
H   -3.293723608300  1.570432141500  0.045035575100
H   -3.356306600600 -2.634173853800 -2.052724355700
H   -3.035056384500 -1.293239968300 -3.160687716100
H   -1.697976353500 -2.151042645800 -2.377358890700
H   -5.924251790400 -0.736896873200  0.519831681900
H   -6.922281697000  1.332233188300  1.345645369700
H   -5.709115314700  2.747211834200  2.963835555300
H   -3.471615640400  2.058097107200  3.753132392900
H   -2.458466170500 -0.026971976100  2.908607927400
