70
-106.10090562
C   -4.555163174100  1.068807741200  1.130357381700
C   -3.614912665900  0.042322838200  0.490901800600
N   -2.215290082600  0.472815985800  0.484598253000
P   -1.078994017300 -0.739729149200  0.749015453000
O    0.054780254500 -0.002024671500  1.714801479400
C    1.080857304900  0.835741521900  1.357888352400
C    2.031865759600  0.505494758100  0.410100312700
C    1.182060738800  2.039984241300  2.083210590300
C    2.161523776300  2.944549384600  1.801794974200
C    3.061145781600  2.716443232700  0.739058192800
C    2.992359172300  1.488967579500  0.029433080800
C    3.855999697600  1.306665507700 -1.072653942500
C    4.767273899400  2.265499626300 -1.420274923800
C    4.865848773000  3.456419180700 -0.686092684100
C    4.023235883900  3.678073669400  0.366962501000
O   -0.260789404000 -0.628258209800 -0.712171306700
C    0.908280468200 -1.353887457900 -0.762471632900
C    0.901211255000 -2.600814942500 -1.409999257800
C    2.046436728000 -3.337671391300 -1.483959575700
C    2.055399273600 -0.838878919700 -0.196812056100
C    3.233468351600 -1.641022104000 -0.181225477200
C    3.228729618200 -2.891770602500 -0.854892721100
C    4.400850714200 -3.676856734800 -0.858780039200
C    5.523051246800 -3.267366076600 -0.195041108300
C    5.511299896200 -2.059533001300  0.517816896200
C    4.396701235200 -1.267144885900  0.525950106100
C   -1.858359774500  1.726120467500 -0.191183580600
C   -2.634435205800  1.912925054000 -1.478346388300
C   -3.419808522800  3.027354569000 -1.742623406900
C   -4.114329453700  3.134897148400 -2.937184224300
C   -4.038076566200  2.131578444000 -3.886091882000
C   -3.249769909800  1.019601778500 -3.637991668100
C   -2.554115142200  0.916514495700 -2.448193266100
C   -1.923416384000  2.916817442500  0.768439340100
C   -3.728541416600 -1.270077151900  1.225402811900
C   -3.460540269600 -1.345063031700  2.589040488600
C   -3.592016522600 -2.542187648700  3.266437567200
C   -3.998218151900 -3.683224882600  2.592343111600
C   -4.269152736200 -3.618240575100  1.237321952800
C   -4.135946880900 -2.417398631900  0.559559951900
H   -4.682697699300  1.929235878900  0.479814648600
H   -4.175918221100  1.392905401100  2.094888301900
H   -5.529330251700  0.606168973200  1.277183879900
H   -3.953276063800 -0.113615812100 -0.545291773100
H    0.474438213500  2.207482109200  2.881293793900
H    2.244604856300  3.856852875100  2.373940905600
H    3.779914197000  0.400868825500 -1.655064156100
H    5.415219068900  2.109800124900 -2.270591915100
H    5.599151986000  4.197927540900 -0.967530019100
H    4.071907838900  4.600975623600  0.927287925200
H   -0.026165213800 -2.944998582100 -1.843181178100
H    2.054494863700 -4.286887280100 -1.999254569200
H    4.387410551200 -4.618089980300 -1.389690397400
H    6.416020886600 -3.875031766600 -0.200973323000
H    6.390651551300 -1.758403397400  1.068300783000
H    4.395723537100 -0.347175326800  1.090258305800
H   -0.803311070800  1.614600128500 -0.478284118600
H   -3.494568338600  3.829961209900 -1.025978436000
H   -4.719897522100  4.010370793000 -3.123971413600
H   -4.584012579700  2.216130128200 -4.814507250600
H   -3.174476304300  0.232410850800 -4.374887387600
H   -1.933090590800  0.052701826600 -2.259404487900
H   -1.429728159900  3.775505733600  0.317826177200
H   -2.941174685300  3.185856483400  1.028276391000
H   -1.397015372500  2.658588789600  1.682272483700
H   -3.134741513100 -0.461435341900  3.116775998300
H   -3.378101252000 -2.587341822200  4.324406295700
H   -4.101171375300 -4.618741181000  3.122421542200
H   -4.585295784300 -4.503280391700  0.704235189800
H   -4.351973149600 -2.369948591500 -0.499077569700
