70
-106.10003340
C   -4.682061910100 -1.617602563400 -0.444112141200
C   -3.675089944300 -1.337488646800  0.671378376200
N   -2.462254580800 -0.677617794400  0.191682463300
P   -1.072149707200 -1.567526778400  0.515071260100
O   -0.133175300400 -0.627387621000  1.534861076500
C    0.662658048600  0.439340093100  1.207575017800
C    1.679454783600  0.364006298500  0.275698335300
C    0.440479379700  1.624828444900  1.938823220400
C    1.184719902700  2.740328594300  1.697938329200
C    2.147063992200  2.748218261400  0.664936328800
C    2.385912093400  1.555001962800 -0.065897512300
C    3.285965019400  1.608179412100 -1.151701214800
C    3.950161329800  2.763226775500 -1.461215029700
C    3.750892042000  3.926493103000 -0.703819911600
C    2.859758255900  3.918624289400  0.332635639500
O   -0.282056006800 -1.246305992100 -0.905327850800
C    1.027105929600 -1.667816553700 -0.963041933800
C    1.320008471200 -2.852502745700 -1.659935811800
C    2.606155678700 -3.299031940000 -1.740784730700
C    2.019202139600 -0.919664275300 -0.364729494400
C    3.351551287300 -1.426303860700 -0.355588379700
C    3.645326454500 -2.618124195800 -1.070609001800
C    4.967104405800 -3.111118314900 -1.074987319200
C    5.955268990600 -2.478935889300 -0.373811078200
C    5.655478652000 -1.332842516600  0.376980113900
C    4.387885545400 -0.819553648400  0.386731387600
C   -2.375620908600  0.742810792400 -0.157874964200
C   -1.712311992000  0.935290309100 -1.505847621500
C   -2.130578935700  0.212277239500 -2.615290969400
C   -1.535106407600  0.407376948500 -3.847517705400
C   -0.519338482200  1.338451547500 -3.990242272800
C   -0.110333061300  2.077916238800 -2.894337145000
C   -0.706854950600  1.879292021400 -1.661424185300
C   -3.701485179600  1.503940500900 -0.190606049300
C   -4.252133027700 -0.686207741100  1.913565335900
C   -3.383825687000 -0.398018593000  2.962043722800
C   -3.844803759800  0.175389952200  4.132061055200
C   -5.192645420300  0.460894251100  4.279465946100
C   -6.068160726100  0.162444513800  3.250472651200
C   -5.603945003100 -0.408401547400  2.076281561900
H   -4.158166175600 -2.072655071200 -1.281604878100
H   -5.183077727700 -0.719098187800 -0.787981090700
H   -5.428627386100 -2.324077243900 -0.088728369600
H   -3.309855733800 -2.324515112900  1.001810612200
H   -0.328407247700  1.613542487100  2.698137571600
H    1.023873431000  3.640299518700  2.273624747100
H    3.433407484900  0.724784717400 -1.754086408200
H    4.629926998900  2.785453469400 -2.300653492900
H    4.291705535800  4.827222441200 -0.955060568400
H    2.675927783000  4.814547765900  0.908778884600
H    0.502541876500 -3.381398210700 -2.126539223200
H    2.840832308900 -4.197278939000 -2.292764912400
H    5.178807734300 -4.009982831500 -1.636373652000
H    6.964351969000 -2.864207592500 -0.379677900700
H    6.434129322200 -0.857169356700  0.955317629100
H    4.166615849800  0.054645217100  0.979898062300
H   -1.745458081600  1.233923824600  0.599534764000
H   -2.913062189900 -0.522567503100 -2.504217876100
H   -1.862356685800 -0.170138949100 -4.700772657100
H   -0.048525084800  1.486741529400 -4.951574024700
H    0.680852570700  2.807392053800 -2.993701083300
H   -0.377983849500  2.458439088500 -0.809422269800
H   -3.476128837800  2.558611453100 -0.340388849300
H   -4.319863262200  1.174980280100 -1.020234824200
H   -4.248640293600  1.397493006900  0.740603108800
H   -2.333355389200 -0.631286466000  2.851282632900
H   -3.153157976300  0.394103521600  4.933266885600
H   -5.557170846700  0.908181566400  5.192662136300
H   -7.122023459100  0.374749143800  3.359354680300
H   -6.306551835300 -0.628279168800  1.288482311300
