70
-106.10452273
C   -2.877545420100 -0.129158735400  3.174630484700
C   -3.438402431500  0.019772770000  1.760271511600
N   -2.371388716900  0.029781073600  0.762384510900
P   -1.060583579400 -0.990871176000  1.097416140000
O    0.073102375800  0.009815054700  1.824469021000
C    0.875205848700  0.937662905300  1.221569957700
C    1.755360538500  0.607737330300  0.208453845000
C    0.838781163900  2.243604932100  1.746790731700
C    1.646440066000  3.217638430500  1.241448153100
C    2.470814854000  2.956721265800  0.127176582600
C    2.508469909900  1.644743238200 -0.412499399500
C    3.269573814900  1.425307813300 -1.580749129400
C    3.991993039000  2.436011074800 -2.151921218200
C    3.995502187700  3.718775936400 -1.584859638900
C    3.243576477000  3.972485612700 -0.472202569600
O   -0.452822302400 -1.007545991000 -0.430079044100
C    0.812652056500 -1.554760242100 -0.530272073200
C    0.931604649900 -2.875588620700 -0.992966733700
C    2.163214984400 -3.448333646800 -1.120973535200
C    1.919167046500 -0.799011265900 -0.205851503400
C    3.203112335700 -1.418635580800 -0.237483427200
C    3.322070420500 -2.748272793400 -0.724124102200
C    4.595609065700 -3.353725673000 -0.774309812100
C    5.705201866500 -2.693547563300 -0.327225204300
C    5.581517675700 -1.402660286100  0.207477100400
C    4.364142551200 -0.781288066900  0.251892960800
C   -2.778860670100  0.500291424400 -0.564814968700
C   -1.720436798400  1.405639631300 -1.162819599700
C   -1.017143635800  1.109517447300 -2.322560975600
C   -0.095769709300  2.005733777700 -2.836375524100
C    0.127215449700  3.218917545200 -2.210593548100
C   -0.569723117700  3.525757947100 -1.055166557800
C   -1.479580466600  2.623964047000 -0.536550756500
C   -3.242173276700 -0.622405723500 -1.494385856200
C   -4.491437444800 -1.042747107900  1.523092065700
C   -4.131864757500 -2.375234042700  1.366062972600
C   -5.095186784300 -3.347984456800  1.170621785900
C   -6.436181619700 -3.000843200000  1.135285351300
C   -6.805254862800 -1.676275376700  1.293649512400
C   -5.837813305700 -0.704232477600  1.485875810400
H   -2.498830121900 -1.134772358800  3.339559118400
H   -3.665506631400  0.066451619900  3.899633109700
H   -2.065812769400  0.576732028700  3.330568077100
H   -3.929401045500  1.002995252400  1.701583656200
H    0.169828912600  2.437120088000  2.572035796400
H    1.640840463200  4.209914959100  1.668911786700
H    3.263687036400  0.445362461300 -2.033758534000
H    4.562836605000  2.250693208400 -3.050414468400
H    4.581485915700  4.503050845200 -2.041902087900
H    3.216463024200  4.963029721700 -0.040116548900
H    0.028718263300 -3.411351743300 -1.246375023100
H    2.262814516500 -4.455754416400 -1.497325178200
H    4.671885716100 -4.359274186100 -1.162901222400
H    6.676479818900 -3.164548667900 -0.365978835500
H    6.457294169700 -0.900137011300  0.591464322200
H    4.280308040000  0.205957576900  0.679553424800
H   -3.654118940100  1.143327735600 -0.385552426200
H   -1.176298100300  0.172409442200 -2.831828596300
H    0.447756272700  1.755515520500 -3.736437357000
H    0.841229935100  3.919041626600 -2.618370869300
H   -0.407589386400  4.471780049600 -0.559605189100
H   -2.020106966000  2.868424532800  0.367621365500
H   -3.555958579300 -0.202277586400 -2.447607152100
H   -2.447476085400 -1.341910209400 -1.661704965500
H   -4.087678996000 -1.140223484800 -1.047810337800
H   -3.085064806500 -2.646669895900  1.383586998400
H   -4.799699266500 -4.379826413300  1.046938856300
H   -7.189444648500 -3.760081626500  0.983681896500
H   -7.848745792400 -1.397344814300  1.265787473300
H   -6.133414956400  0.328933039000  1.607962340900
