70
-106.10659579
C   -3.513145250800  0.332903531600  3.071456903500
C   -3.406811744800  0.270488283100  1.547727677000
N   -2.051404915700  0.603194347300  1.106056921700
P   -0.891366712700 -0.563664115400  1.395353129100
O    0.393985816500  0.271226353800  2.054981335300
C    1.315750884600  1.046724962500  1.399523608700
C    2.112136320300  0.563067773800  0.377522853100
C    1.481348042300  2.362479296200  1.876656256800
C    2.376135969200  3.208389053300  1.293263592600
C    3.116229417600  2.798807135200  0.163843428400
C    2.975601499000  1.467237445300 -0.308189255800
C    3.667689669700  1.099937376000 -1.482975590300
C    4.490575863800  1.985563166200 -2.122502005100
C    4.666304583200  3.284783989400 -1.624252843300
C    3.985056060900  3.683200906400 -0.508412287100
O   -0.314861005900 -0.684477791900 -0.166568056300
C    0.833966116500 -1.434470433900 -0.293781455600
C    0.728790451700 -2.765122922400 -0.731714133200
C    1.851935153400 -3.526761395500 -0.870358498800
C    2.054525802600 -0.860806024600 -0.005618534700
C    3.224372470400 -1.672449636200 -0.054847683200
C    3.117603266300 -3.012593295600 -0.514201741800
C    4.278462291000 -3.811500521500 -0.580944209400
C    5.490444648700 -3.325120177700 -0.178084570000
C    5.587439416500 -2.019974134500  0.326456256200
C    4.484176738200 -1.214179925500  0.387462593900
C   -1.826843075000  1.842954254500  0.367731210900
C   -2.663696909500  1.878819762100 -0.895600119600
C   -3.840701560900  2.610243778700 -1.004243188400
C   -4.590892702100  2.574095834200 -2.168868875400
C   -4.177613432800  1.807270613800 -3.243709118200
C   -3.003275068800  1.078509932600 -3.148566671600
C   -2.255968327900  1.116855047600 -1.986014788500
C   -2.023110682100  3.059912992500  1.273040310900
C   -3.788189714500 -1.075852811000  0.972905266800
C   -3.515722392000 -2.269528688500  1.630850863000
C   -3.815600826800 -3.485052291600  1.039502061200
C   -4.389194325700 -3.528242292400 -0.219624049900
C   -4.672784740700 -2.344775463200 -0.879873691800
C   -4.378691249900 -1.131076230300 -0.284600426200
H   -2.719574059500 -0.256470254200  3.525025751100
H   -4.478363579200 -0.047393408900  3.398105555900
H   -3.404626745600  1.359566353300  3.412371057700
H   -4.079447400800  1.017928278500  1.114026223600
H    0.889551957700  2.666775047900  2.726667874400
H    2.510951268700  4.210000380900  1.674379564200
H    3.529728928700  0.107686807500 -1.885156388200
H    5.007725758900  1.686859266800 -3.022766520500
H    5.329123114700  3.967582250700 -2.135372099400
H    4.092069744800  4.688669492900 -0.126720856800
H   -0.255346869200 -3.149466016600 -0.955313314900
H    1.782880498900 -4.544060929100 -1.226657367400
H    4.185503062700 -4.823885121500 -0.947547202600
H    6.374204161900 -3.943974498100 -0.230223178500
H    6.542715090500 -1.653440151000  0.672987948100
H    4.568135773900 -0.216132599200  0.789821501500
H   -0.774397994400  1.817923339400  0.058644221000
H   -4.186095825300  3.222544504300 -0.185332653600
H   -5.504538137500  3.147998501900 -2.232850321400
H   -4.765416364800  1.778407012000 -4.149783197700
H   -2.668397565400  0.478234532100 -3.982428543700
H   -1.346287414100  0.539916094100 -1.912989926900
H   -1.337757618200  2.995744448000  2.113837491000
H   -1.813793462700  3.971460821900  0.717782358400
H   -3.034958807000  3.106806100700  1.666061461400
H   -3.073979408200 -2.259540393800  2.614720748100
H   -3.596984839100 -4.403111185700  1.565896843900
H   -4.617275269400 -4.477858648400 -0.681875385100
H   -5.125618756800 -2.364123489400 -1.860906442600
H   -4.603723583000 -0.212699902400 -0.807450278200
