70
-106.10232461
C   -3.642239611600 -1.786032036700  2.688412301100
C   -2.887270235000 -0.590215927400  2.101287990800
N   -2.101140320700 -0.894215983300  0.899597313200
P   -0.743726202900 -1.887943611600  1.244459017200
O    0.255965738700 -0.832438183100  2.037126553100
C    0.717519784100  0.331687177600  1.459135112100
C    1.558790911300  0.312390286300  0.365178954500
C    0.362017520900  1.544564238700  2.074205617900
C    0.765232700200  2.734795784200  1.542268233800
C    1.505640979500  2.767226432600  0.342475068900
C    1.908571415600  1.543921074600 -0.255582168900
C    2.608741113500  1.594846746800 -1.480212120800
C    2.923240766200  2.792006575000 -2.060982175700
C    2.557559942100  4.000330843700 -1.448782868900
C    1.858552090900  3.985835476800 -0.274573747000
O   -0.138864899000 -1.796462479500 -0.289323695000
C    1.212643281500 -1.989417151400 -0.449753896200
C    1.664986244800 -3.207856389100 -0.982825155700
C    2.999586223100 -3.414418265800 -1.179218739000
C    2.089031009200 -0.973191623600 -0.132961248300
C    3.488213912900 -1.205305296400 -0.251234639400
C    3.941806862800 -2.435568193100 -0.799237936200
C    5.328416481400 -2.660770046200 -0.932054102300
C    6.234821732700 -1.727940638700 -0.513280205600
C    5.789433777300 -0.533009553300  0.071679572800
C    4.452398853300 -0.277387238600  0.200068247700
C   -2.830933640400 -1.127632067600 -0.348073936300
C   -2.098959221300 -0.427802254600 -1.480277601000
C   -1.610806113500  0.856710495100 -1.261166465300
C   -0.924943499500  1.540085997000 -2.246505204400
C   -0.718771824600  0.952210038500 -3.483154392700
C   -1.214017983600 -0.317054514100 -3.719864960900
C   -1.901039031000 -1.000410582100 -2.729734968300
C   -3.101477041800 -2.608174751000 -0.624677035600
C   -3.776102309700  0.610637507700  1.843396705300
C   -3.197623588600  1.874355056200  1.783041782100
C   -3.957962117300  2.999386567500  1.521138970800
C   -5.322485104200  2.882163264700  1.318099738100
C   -5.912602236800  1.632468493200  1.380258839600
C   -5.147398574000  0.506902556600  1.638435480100
H   -2.931891316100 -2.579778677500  2.914482994200
H   -4.388115889700 -2.174334366900  2.001391845800
H   -4.137973848700 -1.486939665600  3.609775705600
H   -2.138387874500 -0.292365971400  2.849406390000
H   -0.210445341100  1.498567666300  2.989464959000
H    0.503057021600  3.666141679400  2.023362748900
H    2.879454841100  0.670134156000 -1.966885874000
H    3.452637708700  2.812684526100 -3.002493086900
H    2.821443146400  4.937120462800 -1.917739568600
H    1.553950593500  4.909666131200  0.196807461700
H    0.932539062500 -3.960557314700 -1.233366368400
H    3.352710904100 -4.342595970600 -1.604070620100
H    5.658775859900 -3.595112971600 -1.363122072500
H    7.294779496500 -1.908849734900 -0.615803128200
H    6.512753127900  0.186586648600  0.426678017100
H    4.121491658100  0.639474088700  0.663560239400
H   -3.797416653900 -0.617009177800 -0.234154419700
H   -1.762785412800  1.318052285200 -0.297757617400
H   -0.545884822700  2.532218218500 -2.047173460000
H   -0.176906391400  1.480298961600 -4.254547520500
H   -1.063198581000 -0.785286783400 -4.682725685900
H   -2.268857668100 -1.990633385200 -2.946946757400
H   -2.172545363500 -3.120799795300 -0.860726045200
H   -3.537644943500 -3.080650820100  0.250856039400
H   -3.795941785900 -2.717958418500 -1.454768654300
H   -2.134866377800  1.974867471900  1.942580043300
H   -3.483462336900  3.969174202000  1.477999426600
H   -5.921233883700  3.758041277500  1.115262331700
H   -6.977012671400  1.528428547100  1.225239730600
H   -5.638163127700 -0.452990573400  1.680684850000
