70
-106.10046381
C   -4.515968014000 -0.063263424300  1.297764718100
C   -3.813748717000 -0.577885450100  0.043621115300
N   -2.563838315800  0.139840460700 -0.227148118900
P   -1.279491289100 -0.573618720800  0.592412784900
O   -0.301649876900  0.662703365800  1.114696445000
C    0.774822556700  1.253415385900  0.508551490000
C    1.822314972700  0.547546890200 -0.053617625700
C    0.797589331200  2.664114862000  0.552126788100
C    1.823891912000  3.362368144800 -0.008747985800
C    2.851985227700  2.689172156900 -0.702480218600
C    2.841586404100  1.270477855700 -0.744465206200
C    3.824396000000  0.622201614400 -1.524070124100
C    4.793771973500  1.335216773200 -2.174223401100
C    4.834299071500  2.733913412000 -2.082476660000
C    3.875167220200  3.395392960200 -1.368104644400
O   -0.371291263900 -1.055567472000 -0.727097836100
C    0.799086706600 -1.679215538500 -0.355200274200
C    0.846339020600 -3.083576958600 -0.369871522500
C    1.983871408200 -3.733111880600  0.009274015900
C    1.886264004500 -0.923466321500  0.032227428900
C    3.044512080200 -1.590767411400  0.528452152800
C    3.096907310900 -3.009820455300  0.490270402500
C    4.251331535200 -3.669517458700  0.961656989000
C    5.298416866600 -2.965355616900  1.486596591700
C    5.223660920800 -1.567924421100  1.579257046900
C    4.126180239000 -0.897632834300  1.113834472200
C   -2.659195930200  1.330756675600 -1.053337571200
C   -2.905952358600  2.618089597900 -0.286603556100
C   -2.664602335500  2.742624372200  1.073104937300
C   -2.893235931700  3.943391796900  1.725251193300
C   -3.367259905200  5.038453158700  1.024979818100
C   -3.619918500100  4.922313530200 -0.332295021800
C   -3.394621710300  3.721426978100 -0.979583173200
C   -1.446928155900  1.493608182700 -1.975621348600
C   -3.503453912500 -2.059615122600  0.068070660000
C   -3.609230734300 -2.854979401400  1.202087982200
C   -3.296271725300 -4.203128997600  1.148215776400
C   -2.880053666200 -4.780155431700 -0.038496737300
C   -2.781288606900 -3.998698587100 -1.178463617200
C   -3.093589502100 -2.653597293900 -1.123383593000
H   -5.425240065800 -0.631290820300  1.479991086600
H   -4.779306756500  0.983919368800  1.166735271700
H   -3.855419918900 -0.146698708600  2.157857801200
H   -4.481493154400 -0.402296501200 -0.812446785500
H   -0.024615543100  3.164089585600  1.041060335700
H    1.843115073800  4.440994681600  0.044196060700
H    3.796350627200 -0.452665543100 -1.617668367900
H    5.533341765500  0.819697549400 -2.769543698300
H    5.614433948400  3.280682717500 -2.591613658800
H    3.876004338600  4.474639709700 -1.310417131600
H   -0.037895526000 -3.614371858000 -0.688646301000
H    2.035104495200 -4.811557540700 -0.021500396200
H    4.284048923200 -4.748511151700  0.909932209000
H    6.178235381200 -3.477932257500  1.847093663800
H    6.040075421500 -1.020116709300  2.026947512100
H    4.074693924900  0.176747935000  1.203536698600
H   -3.533349326700  1.177463797200 -1.706488844100
H   -2.296728206200  1.894067085800  1.629812202900
H   -2.698305347000  4.020479347400  2.785748456400
H   -3.544562484800  5.975214244500  1.533149884500
H   -3.998507971300  5.768965656500 -0.887018395200
H   -3.605921289200  3.637136659800 -2.036768711600
H   -1.639224985400  2.282243646000 -2.699748926400
H   -0.558519410100  1.760692872800 -1.411941196900
H   -1.258316890400  0.563207564700 -2.505874558300
H   -3.931888625300 -2.429506291300  2.138602454100
H   -3.378834660000 -4.805532138000  2.041286894700
H   -2.634727597100 -5.831618500400 -0.076670758600
H   -2.463400199100 -4.439272109900 -2.113178972800
H   -3.015977737000 -2.047156056100 -2.014737086300
