70
-106.09974948
C   -2.657009854500  0.269683379500 -2.062131663500
C   -2.462112790800 -0.651705834400 -0.857628113200
N   -1.774219673900  0.029811118800  0.246023457200
P   -0.676443237100 -0.947334726800  1.140519168700
O    0.397826003400  0.180264691900  1.698723889300
C    1.192573148800  0.949638117100  0.874503726000
C    2.177483407600  0.381029536000  0.091431487600
C    1.021370437700  2.344565831900  0.919502305100
C    1.781303722800  3.159690916800  0.131542708000
C    2.713546400600  2.615005662900 -0.775723778800
C    2.911738513700  1.208888975500 -0.804135099900
C    3.806129043800  0.677161068100 -1.758829711400
C    4.496198977300  1.496579000800 -2.608603502300
C    4.330652875100  2.888636756200 -2.549567079000
C    3.452239534800  3.433693731200 -1.655903592900
O    0.136137472800 -1.482967898400 -0.204403245100
C    1.409707804000 -1.959432790600  0.031229109400
C    1.619777389400 -3.347458374700  0.062947775200
C    2.874751814400 -3.842325878300  0.270442521500
C    2.448646277900 -1.067700309100  0.193630146700
C    3.746286051100 -1.568088525200  0.495540173600
C    3.959239422500 -2.973007932800  0.512438202600
C    5.249885259400 -3.469957100400  0.792590028700
C    6.282413051300 -2.621429982100  1.077190667800
C    6.061751770500 -1.236212932100  1.109606030000
C    4.826864398000 -0.721733001200  0.827044738500
C   -2.497232139200  0.954073580800  1.129982439700
C   -3.098146245800  2.104757003900  0.351986339800
C   -4.460513489100  2.372222316200  0.320218010400
C   -4.948773577900  3.457062938000 -0.391368342900
C   -4.085843320100  4.292234670700 -1.078021792300
C   -2.724372471300  4.035531532200 -1.050900404100
C   -2.238765346800  2.954504912400 -0.340345552200
C   -3.469272024500  0.290872444000  2.109705517500
C   -3.710856131400 -1.397311081100 -0.440215814500
C   -3.552596903500 -2.537651377500  0.341717237000
C   -4.644277256700 -3.270014875700  0.767350269700
C   -5.922470908500 -2.876444026300  0.404214097600
C   -6.092257629400 -1.751625629400 -0.383839709200
C   -4.995599711300 -1.016676962600 -0.805582248600
H   -1.705704320100  0.733139267500 -2.313010733300
H   -3.379691267000  1.055670082900 -1.873825524100
H   -2.991121777100 -0.323791631000 -2.911146374500
H   -1.747509646900 -1.416562851700 -1.182259683800
H    0.292325930100  2.748358499100  1.606533950700
H    1.658107188500  4.231921166400  0.178157019500
H    3.930848415800 -0.393342928100 -1.821172220400
H    5.172552757200  1.072414913300 -3.336364857500
H    4.891646556000  3.521123346300 -3.221897484500
H    3.300265312700  4.502884735600 -1.614113353000
H    0.771136197300 -3.997964064400 -0.088366618700
H    3.047336414200 -4.908451634000  0.278080437800
H    5.401269183700 -4.539944803600  0.787618283600
H    7.267157145500 -3.009568942700  1.292303469900
H    6.876387121500 -0.574239408000  1.364635174500
H    4.665033496200  0.344610326700  0.867153296600
H   -1.700692700100  1.389381691400  1.752270041600
H   -5.156186239400  1.735980286700  0.843737149800
H   -6.012435374900  3.648344501800 -0.406360839100
H   -4.470278957900  5.137629982000 -1.629981842300
H   -2.039635212800  4.680394337000 -1.582745459400
H   -1.178774899700  2.748452056400 -0.329712467200
H   -3.826672512800  1.033747572100  2.820375289500
H   -4.318296265400 -0.162749489900  1.609968696600
H   -2.940260518900 -0.486964231000  2.659067527400
H   -2.551893160400 -2.843091530100  0.622945704000
H   -4.499608799200 -4.150039164600  1.377172472000
H   -6.779868984500 -3.446167961800  0.731548337600
H   -7.085797469800 -1.440825538500 -0.674241117700
H   -5.152047679900 -0.140258291400 -1.414419870300
