70
-106.10184168
C   -2.937280700700  1.105896745600  2.757833739200
C   -3.499275235900  0.397468467300  1.523591347600
N   -2.470565604900  0.325646820600  0.471953807400
P   -1.358520700200 -0.957390228600  0.678875172400
O   -0.188941446700 -0.280678669900  1.660613098300
C    0.675790627200  0.713246361600  1.271372558400
C    1.608333680600  0.512629599400  0.272127709400
C    0.637809132300  1.923602622100  1.987516145600
C    1.500072352600  2.935408563600  1.684316698300
C    2.398732517200  2.813109708500  0.604437516200
C    2.438822422900  1.597185686900 -0.126940512700
C    3.281407987000  1.525010295700 -1.257221200500
C    4.076369695500  2.579403456300 -1.611516975900
C    4.073780489000  3.761119335700 -0.855566939400
C    3.245408370500  3.875629263100  0.225038235200
O   -0.623276209700 -0.769596974500 -0.784018262700
C    0.597214321200 -1.403850868100 -0.897097575300
C    0.662017057300 -2.629365501900 -1.579576049400
C    1.858925525400 -3.269329805700 -1.723452204700
C    1.725061060600 -0.811180649400 -0.370355887200
C    2.963224283900 -1.511514615100 -0.430933217500
C    3.028785471500 -2.743653976300 -1.135771390200
C    4.260077089800 -3.428765996000 -1.211990427000
C    5.374651923500 -2.941176531400 -0.589883243500
C    5.298973898100 -1.751705831600  0.150307366800
C    4.125296383100 -1.054571813500  0.228425924400
C   -2.889047378100  0.764146914900 -0.861058681200
C   -1.757981255300  1.507847807300 -1.543830196900
C   -1.310202869800  1.221504791600 -2.826023046800
C   -0.287046666900  1.961024156400 -3.395487778100
C    0.293137008200  3.007629817300 -2.701695159900
C   -0.156797849800  3.311212543500 -1.428225283100
C   -1.170554185300  2.565800967500 -0.857817855500
C   -3.505508972800 -0.365342442300 -1.686537832700
C   -4.098221093900 -0.946531403900  1.874068457400
C   -5.342116548300 -1.301780062600  1.365173602500
C   -5.901664949500 -2.536300197400  1.646759452200
C   -5.224237049800 -3.435895590600  2.451243270900
C   -3.992342170300 -3.086710376500  2.978434076900
C   -3.435902885800 -1.851565640200  2.696302965000
H   -2.072349674500  0.575898101600  3.143805954300
H   -3.698726301200  1.155131276000  3.533710497900
H   -2.636973009400  2.117485439600  2.492970908600
H   -4.310897401400  1.023021917900  1.130841198300
H   -0.076021444300  2.017247858900  2.791151595900
H    1.485197120000  3.854474679200  2.252544669900
H    3.280716050000  0.626112537100 -1.854939934700
H    4.710436940900  2.508080890900 -2.483472239400
H    4.717260307200  4.580065240000 -1.142779532700
H    3.215102330500  4.789835127600  0.801375703300
H   -0.251208543000 -3.038814319600 -1.985093977400
H    1.919080921600 -4.202228362900 -2.264464726300
H    4.299038820800 -4.356663859200 -1.764640521000
H    6.312977025300 -3.472830954700 -0.650383890100
H    6.176902783400 -1.389511782800  0.665115629300
H    4.074724098100 -0.147326840200  0.810894582000
H   -3.675495276100  1.516670891400 -0.694649494400
H   -1.743971846100  0.410252425200 -3.388875384000
H    0.056909766300  1.716518659100 -4.390803237500
H    1.090067206400  3.583937098200 -3.148370308500
H    0.282136170300  4.131845662500 -0.880360238200
H   -1.514028724500  2.800676056400  0.139404272800
H   -4.291032078300 -0.846707932400 -1.107931692200
H   -3.937412345100  0.027129561000 -2.604560933600
H   -2.755409159700 -1.112435682100 -1.928508988000
H   -5.886634000900 -0.600991257600  0.745975991000
H   -6.869210566300 -2.792836878200  1.239724145900
H   -5.657090617700 -4.400549628600  2.672353227600
H   -3.461412904200 -3.778170698200  3.616399666100
H   -2.479818317800 -1.592584429400  3.125161051600
