70
-106.10368197
C   -4.272616751500 -2.959586338200  0.506593879700
C   -3.388743223800 -1.849323771500  1.071553692600
N   -2.332881455300 -1.436280792000  0.145125887500
P   -0.812052632300 -1.899000201700  0.684206075800
O   -0.160688786400 -0.565513388200  1.479461593800
C    0.493635393900  0.508223993500  0.946527443500
C    1.604812652500  0.377585628500  0.134696556700
C    0.037380845900  1.779787119600  1.344174215900
C    0.668422198700  2.908384225300  0.916779398800
C    1.736297527500  2.828130258500 -0.001047070900
C    2.191171276900  1.551559724800 -0.421429663400
C    3.188682535800  1.495230434300 -1.418915490700
C    3.742503422400  2.637193523000 -1.928658231300
C    3.331748770400  3.896355307100 -1.467742858200
C    2.343289098800  3.986364447700 -0.528125795300
O   -0.006269502600 -1.752346868100 -0.742338728100
C    1.356858732200 -1.963598740200 -0.615411381900
C    1.870731883700 -3.218600863600 -0.980762552300
C    3.207394877400 -3.468740439900 -0.872098912600
C    2.172464614000 -0.952758252800 -0.153331593700
C    3.553220569500 -1.236303317800  0.065073951800
C    4.073971931700 -2.499777433200 -0.322964569600
C    5.444194217300 -2.771598790300 -0.124475515300
C    6.263485437000 -1.853145026000  0.469168546000
C    5.738442131700 -0.628216930200  0.906540219200
C    4.418997438200 -0.326849310000  0.710413486200
C   -2.744998493000 -0.833221380400 -1.121936107500
C   -2.080354224300  0.509030305800 -1.355452496200
C   -0.992867396100  0.686381372700 -2.200646019100
C   -0.466764790100  1.947901116100 -2.419614588400
C   -1.020943894200  3.054785838800 -1.802792816400
C   -2.098507958400  2.889731888600 -0.949968187000
C   -2.620058867200  1.628707517000 -0.729847293200
C   -2.592784451600 -1.796476051000 -2.302306217500
C   -4.144303496800 -0.636064801000  1.569846980800
C   -3.501136595600  0.205057783200  2.473100239600
C   -4.115348140500  1.352589369300  2.938152541800
C   -5.391406233300  1.678782688600  2.506339480800
C   -6.042330947800  0.847824848400  1.612286315200
C   -5.424029579100 -0.302078773100  1.146077195200
H   -3.651892316400 -3.819677144400  0.264715729600
H   -4.793584364100 -2.646327385600 -0.393556508700
H   -5.006819189200 -3.256344440200  1.252020571300
H   -2.853003945500 -2.266318508600  1.937149643300
H   -0.814219300800  1.824505698000  2.005506435400
H    0.335164003100  3.880319176200  1.249796746200
H    3.504245576800  0.532867348100 -1.792973224900
H    4.499748570800  2.573088727900 -2.696770271800
H    3.788957078300  4.788093756700 -1.871337900000
H    1.997297252300  4.950519547100 -0.182993625400
H    1.181955408200 -3.963569139700 -1.350594181400
H    3.612602051200 -4.423386870500 -1.173359388700
H    5.829272306100 -3.730531262700 -0.440755918500
H    7.310821377900 -2.069517097600  0.620726716300
H    6.383993595200  0.078731428100  1.406972271000
H    4.023577063000  0.612763249300  1.064625768300
H   -3.815207840700 -0.619113682900 -1.004095762600
H   -0.548011864300 -0.158861797500 -2.701111630900
H    0.379122178000  2.066361369800 -3.081621238100
H   -0.614403956100  4.038346621300 -1.986566889300
H   -2.541044032500  3.745124311800 -0.459809292800
H   -3.466733515100  1.509888611400 -0.068651273500
H   -1.563725660600 -2.119459186900 -2.412645810900
H   -3.208211698900 -2.678308456800 -2.144517644900
H   -2.912824781400 -1.303242783000 -3.217978029800
H   -2.503907269500 -0.051571975300  2.803506228400
H   -3.601407658500  1.993356361800  3.640507531700
H   -5.875065050500  2.574667276600  2.867553724400
H   -7.037995838300  1.093679492800  1.271773136100
H   -5.955699160900 -0.935930411700  0.453148345300
