70
-106.10226922
C   -3.452603093000 -1.827043866300  1.336499041300
C   -2.973626257200 -0.605462802200  0.548867511800
N   -2.055773425700  0.247272319700  1.307643827700
P   -0.812163976300 -0.529187469000  2.204047156700
O    0.401660227700  0.592308082000  2.139237935600
C    0.921876167200  1.055806235300  0.948165771800
C    1.604466060900  0.223931124700  0.084059897800
C    0.799573579500  2.430426272500  0.680798796700
C    1.269628877500  2.952303035100 -0.489501834500
C    1.838389925000  2.112128747300 -1.468881477300
C    2.009590718500  0.731929942800 -1.182023951800
C    2.537757685500 -0.102063962200 -2.191039517400
C    2.907476584600  0.409635300900 -3.403876990200
C    2.773266734600  1.780494746900 -3.671352604600
C    2.244637573600  2.611670320900 -2.724154443600
O   -0.386789031300 -1.527667368400  0.958522369800
C    0.903620896800 -1.994595629100  0.910407671200
C    1.148548220200 -3.337884053600  1.241890497800
C    2.414811324700 -3.840883903200  1.167665837300
C    1.918261351300 -1.162160867900  0.487065379400
C    3.256456148600 -1.647495006000  0.489432654700
C    3.498596580900 -3.009499787300  0.814704008200
C    4.822455597100 -3.497359529900  0.796871550200
C    5.871309965900 -2.672215898400  0.503296366100
C    5.638891887000 -1.315735478800  0.230915799600
C    4.366400988100 -0.815492077900  0.224370003000
C   -2.629982044900  1.399450824800  2.011841560600
C   -3.370721428400  2.281527196800  1.025664103400
C   -2.634773800700  3.049328925500  0.128766023900
C   -3.258887728000  3.845679197300 -0.813837496600
C   -4.641259674900  3.894399073400 -0.874477207900
C   -5.386192456400  3.141435369400  0.015398303800
C   -4.757948194900  2.340854779500  0.955472879400
C   -3.459341990200  1.042906409700  3.248482695600
C   -2.326098107600 -0.963972444500 -0.777818071100
C   -2.392371803200 -2.232515169000 -1.338975076500
C   -1.769355854600 -2.505540121700 -2.545932670700
C   -1.075054712000 -1.516079725700 -3.217696364300
C   -1.017894437200 -0.242567315600 -2.676870961700
C   -1.640791483800  0.027097058600 -1.473751633900
H   -2.633591931500 -2.529076396100  1.471550962900
H   -4.268867003800 -2.320482682600  0.813494083000
H   -3.807743990000 -1.526121929700  2.318015246300
H   -3.847239751900  0.019172987800  0.315767360400
H    0.351499040400  3.056295515100  1.439274829900
H    1.188771721100  4.011444030200 -0.687661044800
H    2.629138269700 -1.160526066800 -2.000058460800
H    3.301531304600 -0.244293116000 -4.168191997200
H    3.078504117800  2.168867008100 -4.632130595900
H    2.117902256600  3.666193058000 -2.924870407700
H    0.312597390600 -3.950485835600  1.544686446800
H    2.606492561500 -4.877367429700  1.403675069700
H    4.989954916900 -4.538830571400  1.031936402500
H    6.882203682000 -3.052661879000  0.493364627900
H    6.475959153600 -0.663154291100  0.029669420900
H    4.201499359500  0.232673077000  0.026728901200
H   -1.757860220700  1.964672572300  2.369948805700
H   -1.556566129600  3.018890877000  0.171427689800
H   -2.663669806300  4.429843493000 -1.500856870400
H   -5.133660738900  4.516006839400 -1.607955632800
H   -6.465794074400  3.173119320800 -0.020559579100
H   -5.367739796600  1.766290939900  1.635255693200
H   -4.333667376900  0.450528495000  2.995680336200
H   -2.840772402800  0.472338029300  3.939702477000
H   -3.786418364600  1.955407974500  3.742990916300
H   -2.920285826700 -3.029534812300 -0.839863390000
H   -1.825262097600 -3.502908043500 -2.959754116800
H   -0.582043269200 -1.733597609300 -4.154338784400
H   -0.481279531100  0.542205567900 -3.190701161600
H   -1.586056340100  1.019681566000 -1.054705465900
