70
-106.10136211
C   -4.186483278100  1.497421947200  1.093298437700
C   -3.487062829300  0.270800714700  0.500494785700
N   -2.083740940000  0.522363914600  0.151104686700
P   -1.113971433500 -0.860592114000  0.329060155300
O   -0.020012180100 -0.424882626100  1.512300007300
C    0.949846044600  0.532858791600  1.361597234200
C    2.001723060600  0.367846521700  0.480389547600
C    0.873569356600  1.670777376500  2.187425510900
C    1.815199573400  2.654186046700  2.100393317600
C    2.845527209700  2.577752277400  1.139714383500
C    2.934308703800  1.429637647400  0.308302667700
C    3.926000781200  1.406266784800 -0.696711013200
C    4.809714800800  2.440267169600 -0.837588352500
C    4.749718855600  3.551848128100  0.016204531700
C    3.781954219200  3.620306083300  0.978712219700
O   -0.134603409800 -0.624150989900 -0.998491046800
C    1.039627288100 -1.349375199700 -0.998201863500
C    1.111936852100 -2.517457689600 -1.774587669900
C    2.270106837000 -3.237580960300 -1.817448261700
C    2.121844236800 -0.895773987100 -0.273342457500
C    3.307230798500 -1.683482688300 -0.239372019300
C    3.383727154800 -2.854670486800 -1.040027557200
C    4.566057445200 -3.624470721700 -1.022186703300
C    5.618868642800 -3.276227913900 -0.223583554500
C    5.525023994200 -2.148787079700  0.605949183500
C    4.399229479200 -1.372660409700  0.599861175600
C   -1.784371973100  1.597524317000 -0.799694773100
C   -2.800198399700  1.646685290400 -1.920962322700
C   -2.985693294800  0.494706341400 -2.681280368400
C   -3.901301954100  0.461078288100 -3.715469811300
C   -4.647932219100  1.589573167700 -4.014809859400
C   -4.464024408700  2.743445731300 -3.274688730300
C   -3.548177747900  2.773154819000 -2.234636855900
C   -1.535293737600  2.933471763200 -0.094397153300
C   -3.548744382400 -0.860282015300  1.497345816600
C   -2.949033423200 -0.735126117500  2.746839675100
C   -3.031065954400 -1.758297650400  3.672419518700
C   -3.723963916300 -2.918765278000  3.367732000900
C   -4.335085859000 -3.047659854200  2.132655209800
C   -4.248287559500 -2.023647703900  1.204950738600
H   -5.149344749800  1.188051889100  1.495874215700
H   -4.363332802100  2.247092795000  0.327681746900
H   -3.596873132100  1.926937749500  1.897815289400
H   -4.049804912700 -0.027035188500 -0.397873300500
H    0.061424382200  1.726942289900  2.897067129100
H    1.765541949600  3.517869932700  2.747522971600
H    3.972838462000  0.561481392200 -1.367305388200
H    5.559523981600  2.406728326600 -1.614641759600
H    5.462845916700  4.354482668500 -0.102316015800
H    3.710631841400  4.481230620600  1.628195865500
H    0.236679192900 -2.815997082900 -2.331994586600
H    2.339034239900 -4.126253344900 -2.427415478100
H    4.616374828600 -4.504371014000 -1.647621724300
H    6.520107628000 -3.871527350400 -0.214470016400
H    6.349930732200 -1.897466763100  1.256556097800
H    4.332546492100 -0.514831554400  1.251465900100
H   -0.829880355000  1.324135522800 -1.265145398400
H   -2.397623325900 -0.383335980800 -2.447968051600
H   -4.031415599500 -0.444335103900 -4.291181386700
H   -5.364801282600  1.568736822900 -4.822694932900
H   -5.037430924600  3.630058646700 -3.505114297700
H   -3.421160552700  3.688177409700 -1.677462499600
H   -1.136815185900  3.649523282800 -0.810488893000
H   -2.431849547000  3.343598705100  0.356935557200
H   -0.793031374900  2.785072692700  0.686290912400
H   -2.411038080800  0.167787976000  2.990034176000
H   -2.555106246100 -1.650317003400  4.636321276900
H   -3.788031434300 -3.718443277500  4.091110548900
H   -4.880602612700 -3.947885126800  1.889055474900
H   -4.727989656400 -2.127706124300  0.241365562200
