70
-106.10194753
C   -2.458524913500  1.762511310500 -0.916129346300
C   -2.075097816100  0.288474173600 -0.792863114200
N   -2.151719511500 -0.194813243000  0.583045622000
P   -0.820695714500 -0.709387936900  1.460617963500
O    0.236175213700  0.590193250700  1.559849582800
C    1.009457761100  1.100652386500  0.551310930600
C    1.980604312200  0.353706030200 -0.089141260300
C    0.825041661600  2.462328169800  0.240924707900
C    1.559060600100  3.054886842400 -0.742533450200
C    2.477696738300  2.301453391500 -1.503831208800
C    2.682973044400  0.932904585200 -1.185524606400
C    3.550336583700  0.179422544900 -2.006355916000
C    4.215855243200  0.761841172900 -3.049547816600
C    4.049602092300  2.126046296900 -3.330078294300
C    3.190614336400  2.875903491400 -2.576647600100
O   -0.066279500500 -1.519413886800  0.222371404400
C    1.227505586800 -1.923016499800  0.481672850100
C    1.452623747500 -3.262058672200  0.841750577300
C    2.721143329000 -3.698504016300  1.088769789200
C    2.265038546100 -1.023182617300  0.358169575000
C    3.581815045100 -1.441023117000  0.706926071600
C    3.809017807900 -2.800176257500  1.052182038300
C    5.116436605200 -3.218810329000  1.377517839000
C    6.153727846200 -2.329393582100  1.399092711500
C    5.920602718100 -0.976264297100  1.112350296900
C    4.668262385100 -0.542211095400  0.775622822300
C   -3.383571378200 -0.108667469500  1.365481710900
C   -3.669111700600  1.309259194000  1.829430371300
C   -2.715047264400  1.931216281600  2.628015125200
C   -2.902324707700  3.219722338700  3.091794402200
C   -4.060507944400  3.909091148800  2.770262515000
C   -5.023326048100  3.295118627800  1.989457925700
C   -4.831413190700  2.004231371800  1.523062156900
C   -4.567306838500 -0.797093842600  0.693592418000
C   -2.816212308300 -0.621387247800 -1.758696283900
C   -2.581509506900 -1.991745345300 -1.697852673100
C   -3.214316278400 -2.865108237100 -2.562125692000
C   -4.095715032500 -2.382013593300 -3.515247095400
C   -4.327437619100 -1.020872517200 -3.595029435400
C   -3.692448501700 -0.146891562900 -2.726870157300
H   -2.153419945900  2.141065243200 -1.889331596900
H   -1.943781206500  2.335838850700 -0.149884115900
H   -3.526805121600  1.910404693900 -0.789394795800
H   -1.010907568400  0.208301958000 -1.058687922200
H    0.100182469500  3.017065876600  0.817957169900
H    1.427960940100  4.103570420900 -0.965728642600
H    3.675769545300 -0.874551530500 -1.809497342600
H    4.872852510600  0.168118812800 -3.668310047500
H    4.592128034300  2.572392911700 -4.150568726700
H    3.034431226300  3.922611870500 -2.796080750900
H    0.601274555900 -3.923003088500  0.907493790800
H    2.904384317800 -4.731590234600  1.344866805800
H    5.277424801300 -4.259118895800  1.621883201800
H    7.151570450400 -2.657093952500  1.651273951900
H    6.739162097400 -0.273213959900  1.163558204500
H    4.498401899600  0.503667382900  0.570187736000
H   -3.154249051500 -0.678771515100  2.279778498700
H   -1.812131411900  1.390939704300  2.881550852600
H   -2.146410711200  3.685093207800  3.708452364200
H   -4.212040521000  4.916052711100  3.131032624500
H   -5.932816764200  3.822631779700  1.739597832300
H   -5.598968425600  1.548949637300  0.916884680900
H   -4.299824143000 -1.821610553600  0.447604995000
H   -5.411211162300 -0.813207071200  1.379614200900
H   -4.859757594900 -0.294273179600 -0.223052846000
H   -1.893035347400 -2.371034551800 -0.958740538700
H   -3.017765525000 -3.925803996600 -2.493783203500
H   -4.593680868400 -3.061004471600 -4.192211938800
H   -5.008244861600 -0.631186904400 -4.338650001600
H   -3.894426530100  0.908685871200 -2.817584741600
