70
-106.10301678
C   -3.348854382200 -1.727652573400  2.685265446100
C   -2.651223951600 -0.565866954400  1.972763636500
N   -1.946829776600 -0.980626884400  0.753100092500
P   -0.577281692300 -1.950205655800  1.125580516500
O    0.351470962300 -0.862566255200  1.963067978800
C    0.847241780700  0.289841550300  1.386314468300
C    1.797131499300  0.238804026400  0.384745938400
C    0.406138315400  1.523048383300  1.897817569600
C    0.857236325200  2.694821147600  1.362640161800
C    1.733821330900  2.689649345700  0.258251106200
C    2.208060849800  1.448255417400 -0.242688862900
C    3.035730910400  1.458231695800 -1.386844450700
C    3.403503688800  2.635352180400 -1.977447449100
C    2.966652626900  3.862781837400 -1.456287186400
C    2.144618063700  3.886901525700 -0.364946710100
O    0.119718387000 -1.817785246000 -0.370757975900
C    1.475801885100 -2.065449308700 -0.406334394100
C    1.935169694200 -3.314486145100 -0.853515679500
C    3.276004524700 -3.563804682500 -0.913643973800
C    2.349338370400 -1.067409820100 -0.030039491500
C    3.745295724600 -1.338417186400 -0.012901304800
C    4.208739488800 -2.598158372000 -0.479507297400
C    5.594582618900 -2.863913180800 -0.477185015300
C    6.485660072900 -1.941054460600 -0.006413700900
C    6.024986913600 -0.715021777400  0.497029091400
C    4.689938785900 -0.420030455100  0.494780519000
C   -2.848823734700 -1.303968772500 -0.352741667100
C   -2.827959199200 -0.218294198100 -1.410422393700
C   -1.663466182900  0.460866495400 -1.737465542200
C   -1.666055429400  1.433955188800 -2.720875424300
C   -2.836310314600  1.737703570900 -3.395420105600
C   -4.003232996700  1.062799290800 -3.078954241500
C   -3.997582841900  0.093200905300 -2.092353001800
C   -2.582842968100 -2.662003750600 -1.006768590600
C   -3.554795797500  0.605459837300  1.644466012100
C   -4.920096870800  0.610205499800  1.896976527700
C   -5.694461024700  1.711353733800  1.567703847200
C   -5.118469148400  2.822489768800  0.979489302800
C   -3.757562468400  2.827103307600  0.721839112600
C   -2.987051854900  1.728748349000  1.050582473900
H   -4.110171730900 -2.187702651900  2.059241573700
H   -3.806895286400 -1.381576409200  3.608686995500
H   -2.604763534700 -2.483919130800  2.931893554600
H   -1.872868517200 -0.199195842600  2.654841436200
H   -0.282405555200  1.517330250100  2.729612446800
H    0.523482577100  3.640330087200  1.764508551400
H    3.365892165500  0.518704917700 -1.803680572100
H    4.032034687600  2.624803152000 -2.856064708900
H    3.274804412100  4.783071723000 -1.930664957400
H    1.784890817200  4.824584634100  0.034224845900
H    1.205947528400 -4.054879354100 -1.146664461500
H    3.638813206600 -4.516303960400 -1.271020681600
H    5.935768677000 -3.820228024300 -0.847224520200
H    7.544804664900 -2.153032457500 -0.005870666300
H    6.734487246400 -0.002826185000  0.892454855700
H    4.344036274400  0.521119983800  0.894489972600
H   -3.868413487500 -1.336672557600  0.052274069500
H   -0.750707917700  0.228734111700 -1.212497755900
H   -0.750816491300  1.957117417600 -2.960706397700
H   -2.840102771700  2.498273893600 -4.163040731300
H   -4.921878089300  1.295624966700 -3.598535176700
H   -4.914805997300 -0.424008347800 -1.844917425900
H   -2.504759364500 -3.434711108800 -0.242383823500
H   -3.404442229700 -2.907584589000 -1.676903898600
H   -1.663541782100 -2.637272568700 -1.582971089000
H   -5.398460710700 -0.242355136900  2.353381719700
H   -6.755629774600  1.696018976600  1.772163142300
H   -5.724936053700  3.678853732600  0.722836684500
H   -3.294490007300  3.687034962100  0.259944284100
H   -1.928533848000  1.731690250700  0.839624914700
