70
-106.10147829
C   -4.053958345300  0.908896564200  2.188878506400
C   -3.999192941700 -0.110024727700  1.051208457700
N   -2.822131906400  0.128239010500  0.211488533300
P   -1.484354027900 -0.780083632800  0.643311383700
O   -0.455822339700  0.275074912600  1.457014360500
C    0.578312617600  1.045823523300  1.021276934800
C    1.539481828500  0.614602804500  0.125498731700
C    0.681444030100  2.316268002600  1.625596553600
C    1.694233114400  3.165734511700  1.301158335600
C    2.605165235700  2.829559299400  0.277883726900
C    2.511673976400  1.553409655200 -0.334300558800
C    3.366979222700  1.275377777300 -1.422213834900
C    4.297214074500  2.186433713500 -1.841393921100
C    4.426565352200  3.423276682900 -1.193979643100
C    3.590056349800  3.738088764100 -0.159783296100
O   -0.749508061500 -0.769530760400 -0.832564843400
C    0.473514867400 -1.411990235200 -0.837234280100
C    0.531375270100 -2.709007870600 -1.375126083500
C    1.713269391400 -3.388316104900 -1.405249791400
C    1.594993532100 -0.784050306800 -0.337502668600
C    2.809891190800 -1.531010823100 -0.252609045400
C    2.870739851800 -2.831694295900 -0.820273145700
C    4.079828646600 -3.556272189500 -0.761334344300
C    5.176756631000 -3.042623162700 -0.128791788800
C    5.098834749200 -1.787607634100  0.491915864700
C    3.947522939000 -1.051660259700  0.432500815200
C   -3.022450173000  1.010089481100 -0.940105687400
C   -1.864054670000  1.956237963200 -1.170759614800
C   -1.771741929100  3.092168700200 -0.373471312000
C   -0.783594537000  4.035404954200 -0.585311962200
C    0.139043600700  3.855512401700 -1.600792184100
C    0.066037044900  2.723476428200 -2.392182389300
C   -0.930554873500  1.785865752700 -2.185090508300
C   -3.408015341500  0.201432868900 -2.181767089900
C   -4.002241375900 -1.549796960700  1.514828282400
C   -4.254065077900 -2.539025321300  0.567681121900
C   -4.259029692500 -3.875904592900  0.916545889800
C   -4.017295775200 -4.249622692900  2.228483319500
C   -3.773238256000 -3.275272129900  3.179455905600
C   -3.766464546000 -1.935366588200  2.827476199000
H   -4.153410276100  1.911931463800  1.778722147900
H   -3.133558770000  0.866611786900  2.766727021300
H   -4.905383829400  0.715208406800  2.836971550800
H   -4.890279981000  0.026009651100  0.422084674800
H   -0.057909320100  2.576426939300  2.367982261300
H    1.787924586600  4.121888005300  1.794950320700
H    3.267815353200  0.333615705800 -1.940796733300
H    4.936180272600  1.956834747700 -2.681965536200
H    5.175561139000  4.126290319400 -1.528558060300
H    3.657543629400  4.699142335800  0.330607406800
H   -0.380222480500 -3.137987780400 -1.763876586400
H    1.769373725500 -4.373872812600 -1.843316810200
H    4.114514573700 -4.535922619500 -1.216326811500
H    6.098520890500 -3.604034781900 -0.085477098600
H    5.955987238100 -1.403942620300  1.025829990100
H    3.897619412000 -0.095305636200  0.929785055800
H   -3.880175556800  1.648131422000 -0.681585298700
H   -2.491213544600  3.243562832000  0.419563022900
H   -0.738512920400  4.916115249300  0.038844820200
H    0.910310050500  4.591125263800 -1.774597318800
H    0.786003075800  2.571882676600 -3.183721035100
H   -0.972813140000  0.917670698200 -2.823016019100
H   -2.647652709000 -0.540535821300 -2.404532040200
H   -4.349473004300 -0.314777675500 -2.003371638200
H   -3.532483322900  0.863172777700 -3.035953135900
H   -4.445590511100 -2.252450563300 -0.456477684900
H   -4.456398815000 -4.627688179600  0.165916342100
H   -4.021078590800 -5.293424101200  2.506347291500
H   -3.584843045100 -3.557111845900  4.205384920000
H   -3.570749978000 -1.196294011900  3.587407262100
