70
-106.10199196
C   -2.471412359800  1.873451277900 -0.692387469300
C   -2.079452820200  0.396817570300 -0.723236735800
N   -2.143709322200 -0.223764785800  0.597181389500
P   -0.797866033300 -0.793715542700  1.415252757500
O    0.260018419600  0.497552297600  1.576205928600
C    1.032341463900  1.062041193700  0.595642910700
C    1.989935609000  0.348143362000 -0.100529368000
C    0.862407191600  2.443290568400  0.375865005200
C    1.592186012500  3.089436026900 -0.576434993600
C    2.491669013000  2.375826543100 -1.396740272000
C    2.685708051900  0.988157230500 -1.167039150400
C    3.533632644200  0.278223160200 -2.044974298700
C    4.190278600800  0.917163889700 -3.060334356000
C    4.034875653700  2.297644434300 -3.253860136000
C    3.195617921400  3.008349939700 -2.442408675600
O   -0.067570078100 -1.524523746600  0.113456813300
C    1.225160980900 -1.954954285100  0.330211841900
C    1.443592048700 -3.316158127600  0.600095143300
C    2.711173450500 -3.776160970300  0.805839113600
C    2.268126661700 -1.056346137800  0.254815602000
C    3.585092380000 -1.504580088300  0.562486468800
C    3.805296739400 -2.884659361800  0.817362608100
C    5.112396657400 -3.332018259100  1.103308466700
C    6.156193001800 -2.452678257500  1.172804528700
C    5.930567211600 -1.082440635200  0.975208675400
C    4.678599027300 -0.619319903100  0.678140422900
C   -3.371029507700 -0.229003333100  1.391002512000
C   -3.673994179000  1.133437549000  1.990281234000
C   -4.858755710500  1.825516182900  1.777925680600
C   -5.067415358600  3.061557290200  2.369145906900
C   -4.098906834200  3.622700071300  3.181959271900
C   -2.917373471300  2.935242887800  3.408881551500
C   -2.713558075800  1.701050119500  2.821098922500
C   -4.548443484800 -0.868011567000  0.661589964800
C   -2.822503976000 -0.413180270000 -1.772680925200
C   -3.719512427600  0.150766165100 -2.671366793800
C   -4.354851940200 -0.632698270400 -3.621738959100
C   -4.103025727900 -1.990655633900 -3.694588611200
C   -3.201364326100 -2.561495097300 -2.811523043700
C   -2.568031208600 -1.778235091000 -1.865139762000
H   -3.538705574500  2.000879105200 -0.537612506100
H   -2.180942660000  2.350278607000 -1.626069880100
H   -1.950258529300  2.369360865500  0.122047783800
H   -1.016580733300  0.349420045400 -1.002591457100
H    0.151568242100  2.968751436600  0.995963533800
H    1.471607996500  4.151818755000 -0.729858684100
H    3.650280810900 -0.787117928400 -1.915378842200
H    4.831503984100  0.356074655800 -3.724462617100
H    4.570036758100  2.788170280200 -4.053708366400
H    3.048024775300  4.068177369600 -2.594423012200
H    0.587909427600 -3.974062478000  0.631283799900
H    2.889246949200 -4.824912828700  0.992540957400
H    5.268001577400 -4.386908280600  1.279025942500
H    7.153702796300 -2.802504507800  1.394798008400
H    6.754662265500 -0.389658311400  1.063891062100
H    4.514502788600  0.438646716500  0.541261257900
H   -3.127937082000 -0.880602557500  2.245343996500
H   -5.631003388600  1.410968669900  1.148982514400
H   -5.994679493900  3.587534513300  2.191927497600
H   -4.263781719600  4.586966337200  3.640293222100
H   -2.156175103500  3.359302480400  4.048353851200
H   -1.792216790400  1.161887904100  3.000462125400
H   -4.263471304600 -1.855802143200  0.308435613000
H   -5.384792673500 -0.972587066700  1.349020571600
H   -4.859828212400 -0.278741886200 -0.195398608000
H   -3.937537499600  1.206670594100 -2.643255769900
H   -5.051594081700 -0.174524610500 -4.309439482000
H   -4.601159380300 -2.599056913600 -4.435510682600
H   -2.989178784800 -3.620163382300 -2.862316009500
H   -1.863466467000 -2.225362926300 -1.181213491000
