70
-106.10148131
C   -4.065233940200  1.015447263600  2.055343594500
C   -3.996344665100 -0.074194089900  0.985152676700
N   -2.808381576800  0.109810423400  0.147176218400
P   -1.496468644400 -0.833583779900  0.593776122000
O   -0.473667287900  0.183544276800  1.462862314800
C    0.536564734000  0.998631500200  1.049001471500
C    1.517774566700  0.608414075100  0.156320751500
C    0.594598084400  2.263878476100  1.669056938900
C    1.585773183900  3.146452282300  1.365506449300
C    2.518946824500  2.848697391500  0.350474618500
C    2.469411880400  1.578283682600 -0.278854359800
C    3.347739785000  1.336379033200 -1.356951561200
C    4.257828672700  2.277832127800 -1.752160731300
C    4.342862566300  3.510270823500 -1.088991119600
C    3.483791370100  3.789555181200 -0.063126946600
O   -0.725779007900 -0.792818640300 -0.861655277900
C    0.504456849100 -1.421602123200 -0.848361068000
C    0.589401963800 -2.713018558000 -1.395609829900
C    1.781146626900 -3.375669806500 -1.410381262100
C    1.608513462500 -0.782518992500 -0.324913654900
C    2.833490652300 -1.510474304000 -0.229310183100
C    2.921357561000 -2.806567013100 -0.804156378700
C    4.139598503000 -3.514405570800 -0.731140346400
C    5.219845266800 -2.988603369100 -0.080223212800
C    5.115895453000 -1.737186095000  0.544102948000
C    3.955103138700 -1.017463274100  0.472368232500
C   -2.991585888300  0.936296143300 -1.047712819900
C   -1.822868141800  1.862782251800 -1.306358183600
C   -0.911234775200  1.673969839700 -2.337188224100
C    0.099588872300  2.591834447100 -2.562317002300
C    0.208564475700  3.722783379200 -1.773271900700
C   -0.693917054200  3.922215251400 -0.743664197900
C   -1.695810817800  2.998019576500 -0.513237873600
C   -3.374592616000  0.073131555200 -2.252329437700
C   -4.010115350200 -1.479468698300  1.543584066700
C   -3.731019534100 -1.780259638300  2.870039259100
C   -3.750615695100 -3.092560472800  3.313119813300
C   -4.049963931000 -4.123436153200  2.440596130100
C   -4.333917986800 -3.834448908200  1.115853235300
C   -4.316640852200 -2.524578330700  0.676208484400
H   -4.177279642200  1.989428137400  1.583080484100
H   -3.146558755700  1.021538965400  2.636955200800
H   -4.915305214300  0.851230773400  2.713319385800
H   -4.880275440700  0.021845610700  0.338439644500
H   -0.159799828100  2.494346786300  2.406178926400
H    1.645865998400  4.099089819900  1.871363499100
H    3.282586517900  0.397644632100 -1.886309329700
H    4.915209944000  2.076162524500 -2.585668028100
H    5.076241261500  4.237950882900 -1.405010953000
H    3.518054614300  4.746215511100  0.439168496200
H   -0.309102044400 -3.151974314300 -1.803246769900
H    1.858033160500 -4.357556101100 -1.853523996400
H    4.194681166400 -4.491121365100 -1.190423975300
H    6.148498769100 -3.537539223900 -0.025742392100
H    5.960482239300 -1.343605039600  1.090686458600
H    3.884847190100 -0.063642553100  0.972066414700
H   -3.846356406400  1.592216017500 -0.826858687900
H   -0.979997149000  0.805250945200 -2.972114696900
H    0.803314704900  2.425181351400 -3.365362214600
H    0.992036621500  4.442318900100 -1.959403674600
H   -0.621903515300  4.803053550200 -0.122339157600
H   -2.398109836800  3.163521464900  0.292021676200
H   -3.505317880600  0.696306787300 -3.134101711500
H   -2.610899303700 -0.673897844400 -2.444453975300
H   -4.312500346200 -0.440189210800 -2.048645937600
H   -3.491310507200 -0.995499860000  3.569185565600
H   -3.528646076200 -3.308456233200  4.348288969600
H   -4.063621346300 -5.145616980100  2.789434252300
H   -4.573820906100 -4.630865618100  0.426172654000
H   -4.541815456000 -2.304172407300 -0.357646417700
