70
-106.10298575
C   -3.311826200400  2.991170822000  0.262604130900
C   -2.139731148400  2.006515046600  0.332251958800
N   -2.506290726800  0.674490566900  0.820454519700
P   -1.362777329500 -0.527906031200  1.121488532600
O   -0.076365208600  0.239811378600  1.878512880400
C    0.923621194700  0.980590333700  1.310586166200
C    1.725623000100  0.513299786200  0.286561779300
C    1.160644786100  2.245214128300  1.889020597200
C    2.142414044400  3.059149036800  1.409282247900
C    2.895429560700  2.678708711800  0.277294865300
C    2.673656388300  1.401732998900 -0.301390878900
C    3.373462492200  1.076313146300 -1.483163920900
C    4.279118547200  1.944192905300 -2.028551141800
C    4.534681780000  3.183195244100 -1.423418042200
C    3.848133417200  3.544442255300 -0.297963247800
O   -0.753452030200 -0.589814727600 -0.413783786700
C    0.370917011700 -1.371368345800 -0.559162077700
C    0.226523716800 -2.660140206700 -1.100116896000
C    1.318768959500 -3.460929474500 -1.261406257400
C    1.605073774500 -0.875607293800 -0.194224516100
C    2.738624158000 -1.737943257000 -0.262177080800
C    2.591228106900 -3.034716806000 -0.823346923900
C    3.716184881200 -3.882023488900 -0.906049198300
C    4.931261448300 -3.486616737500 -0.421382059900
C    5.065768647300 -2.228587298500  0.183818760300
C    3.998829980300 -1.376563698600  0.261833940600
C   -3.687861877300  0.488420860800  1.664703223800
C   -4.070666968300 -0.973975919100  1.569333179700
C   -4.346384321800 -1.491777248800  0.305878366300
C   -4.694633867800 -2.817893231200  0.136944033300
C   -4.783157144000 -3.655951718700  1.236587759300
C   -4.525033357900 -3.150523997600  2.497842560500
C   -4.173006120500 -1.820805470900  2.664911609700
C   -3.441394217300  0.969810913500  3.094478520700
C   -1.556609871700  1.914911601300 -1.061654064000
C   -2.226346429700  1.220175947100 -2.060956503100
C   -1.710088219200  1.155138405500 -3.340992261300
C   -0.520067250800  1.796926110000 -3.644126525000
C    0.141740426900  2.510847073300 -2.661198300700
C   -0.377224025200  2.572604433300 -1.379299633900
H   -2.943877463300  3.922166946100 -0.165020922400
H   -3.724758164100  3.208471007200  1.243985698400
H   -4.097998806200  2.610508998100 -0.384881163800
H   -1.375900272600  2.442850018300  0.995538867200
H    0.548073708300  2.536049907200  2.730657650500
H    2.333381368300  4.017777495100  1.869834264600
H    3.171691376400  0.133659222000 -1.968686762800
H    4.799564726800  1.679211968300 -2.937518496400
H    5.261544096300  3.852029012900 -1.860848234400
H    4.014825049700  4.507395010200  0.164062662700
H   -0.764715344500 -2.982031033500 -1.382168519400
H    1.218237350400 -4.444420557800 -1.696482698300
H    3.592041980900 -4.859293378700 -1.350414111800
H    5.787128678000 -4.142461892400 -0.485288344100
H    6.020672580400 -1.935779693800  0.595494309000
H    4.111884726400 -0.417111083600  0.743067594000
H   -4.512291890700  1.066011996800  1.231254988800
H   -4.283577631500 -0.840819868700 -0.553168786800
H   -4.901409919100 -3.198428148500 -0.853174496900
H   -5.054340974700 -4.693906616200  1.110075438700
H   -4.595538540500 -3.794613256000  3.362540918600
H   -3.976535739400 -1.456835530200  3.660265018300
H   -4.333623194000  0.845924841500  3.703664746700
H   -2.615077575400  0.409529134500  3.529749896200
H   -3.170156271200  2.023232760300  3.092228834200
H   -3.146856687000  0.708743474200 -1.823261268800
H   -2.235293109400  0.600943344900 -4.106176275600
H   -0.111522349100  1.741460059000 -4.642975829700
H    1.069543211800  3.016889933200 -2.886535363600
H    0.147646405600  3.132256763800 -0.617852128100
