70
-106.10040849
C   -1.553491072100  2.387181546200  0.297204889400
C   -2.779282161400  1.475386544200  0.378600431300
N   -2.530948328800  0.142274542900 -0.144953887200
P   -1.165631455500 -0.830378571800 -0.246445407600
O   -0.311226240100 -0.589969849100  1.160183347900
C    0.739201092500  0.245579701100  1.428168464300
C    1.838578584600  0.396758713400  0.603742147900
C    0.672001416100  0.918562999500  2.667790035200
C    1.659676213900  1.773701913100  3.053062047800
C    2.738698609400  2.055140677700  2.188498552100
C    2.819417787000  1.377571187700  0.944118671100
C    3.853469346500  1.744655099500  0.055299258500
C    4.785223235500  2.683262889500  0.404210855700
C    4.734850365600  3.308080202300  1.658498664100
C    3.724235309300  3.005131925000  2.527237878300
O   -0.233038960400  0.117943560500 -1.260371742700
C    0.978047372800 -0.478108702000 -1.539564946400
C    1.126154249000 -1.159380170600 -2.759494372400
C    2.302058516700 -1.783658199000 -3.054696386000
C    2.002260230200 -0.412931018000 -0.618019811200
C    3.197779593900 -1.148952265900 -0.868459642900
C    3.352330817700 -1.818544269900 -2.111655758400
C    4.543278332300 -2.530142404100 -2.367323199600
C    5.528283140800 -2.614239222400 -1.423643460800
C    5.351913660700 -2.003275091300 -0.173614181000
C    4.217057063500 -1.290031651500  0.098049689100
C   -3.696779881800 -0.574335123000 -0.677288115300
C   -3.265884445500 -1.272844077300 -1.950080871000
C   -2.879447407900 -0.475464826700 -3.024805127200
C   -2.452289398400 -1.038010666800 -4.212581639900
C   -2.409282233800 -2.416131582700 -4.350300671400
C   -2.799572771800 -3.218196176900 -3.292584917300
C   -3.227433279900 -2.652944793000 -2.102583263900
C   -4.324497290100 -1.497223527600  0.363673921400
C   -3.320232857800  1.484692477800  1.795935106800
C   -4.174543429800  2.508253970500  2.189619982700
C   -4.659954335100  2.564959828300  3.483928475300
C   -4.298987642200  1.594795008200  4.404185391300
C   -3.452620550900  0.569167183700  4.019306895900
C   -2.967276295700  0.515629978200  2.723792002700
H   -1.134401764000  2.362650563300 -0.705616153600
H   -0.790317556100  2.082863608100  1.006686472500
H   -1.848737310600  3.407635413600  0.534188107300
H   -3.549926187500  1.922635330800 -0.269972891000
H   -0.184946362400  0.730035265300  3.296680049200
H    1.609357542000  2.269845481300  4.011147957100
H    3.896059764800  1.285647200000 -0.920565158700
H    5.565339197000  2.952290692200 -0.293058051500
H    5.486070408100  4.037818634300  1.922927306400
H    3.654739900800  3.498242925700  3.486471338100
H    0.286745735500 -1.166384616300 -3.438200234400
H    2.431502689400 -2.289552266400 -4.000141643900
H    4.654162984500 -3.019788650700 -3.324350101000
H    6.436521260200 -3.162677929700 -1.626316524700
H    6.119283075500 -2.103052089600  0.580179873200
H    4.087036270400 -0.835928819400  1.068558187500
H   -4.445160879800  0.180790905900 -0.955582835700
H   -2.910504863700  0.600034898800 -2.921092101700
H   -2.154012715500 -0.400473144800 -5.033177567100
H   -2.073324722000 -2.860122055300 -5.276191173100
H   -2.770334224500 -4.293671536900 -3.391551463000
H   -3.525277806100 -3.299556564100 -1.293054729400
H   -4.687945546100 -0.908680346200  1.202839043700
H   -5.160890818900 -2.041350329100 -0.068622465900
H   -3.581320738400 -2.200447441300  0.733369643200
H   -4.464026070800  3.266584408200  1.474722289100
H   -5.324880518400  3.365944345900  3.774022267800
H   -4.679305708500  1.636125168800  5.414581255500
H   -3.169430101800 -0.194907270900  4.729611149500
H   -2.317239518700 -0.292692519400  2.424137651800
