70
-106.10455283
C   -3.242353817100 -0.686974013100 -1.481912149600
C   -2.655564142900  0.583214781600 -0.864940362000
N   -2.337398526900  0.450752855700  0.560242073400
P   -1.219989051300 -0.650613311200  1.213419741100
O    0.000758559800  0.323102632000  1.817249277300
C    0.901968302900  1.042687695400  1.080310935200
C    1.789060199900  0.434752572600  0.212814981500
C    0.953564858100  2.430350238800  1.309296439700
C    1.863553421400  3.206813216000  0.656327231000
C    2.713750369100  2.646470041900 -0.319547788500
C    2.660098866000  1.249422221700 -0.564292036800
C    3.453997079500  0.722863010200 -1.605842906400
C    4.291071081600  1.526281628200 -2.329111077200
C    4.381805418400  2.897703560900 -2.048984900300
C    3.602455901200  3.444835437600 -1.068869599100
O   -0.536701910800 -1.068438946600 -0.223482362800
C    0.666208262800 -1.739571282400 -0.119188822100
C    0.669307815200 -3.133911427300 -0.288303699000
C    1.840290673300 -3.830410597000 -0.214262479100
C    1.830086036800 -1.037107642000  0.111752699000
C    3.043773037100 -1.762463048100  0.291041087400
C    3.046822277900 -3.170542721900  0.100540312600
C    4.253442472500 -3.885271749600  0.256665966900
C    5.404926132100 -3.247665690600  0.623349186700
C    5.391313954700 -1.866336944100  0.867603546500
C    4.242456330100 -1.142432351500  0.706536833500
C   -3.413905048000  0.856388532100  1.461760939400
C   -4.619808309500 -0.060012598100  1.437831742800
C   -5.887226843100  0.453053976300  1.193735671100
C   -6.997120221000 -0.375037263000  1.193604454900
C   -6.851889186500 -1.729671884200  1.437699458200
C   -5.591485566600 -2.250878179200  1.681884344700
C   -4.485392301200 -1.420604282400  1.684247130500
C   -2.914212945900  1.000628614100  2.898894290700
C   -1.474181501800  1.156619795100 -1.622668692300
C   -1.062425500100  2.445971170300 -1.302158096900
C   -0.026469283300  3.055044768900 -1.984488719900
C    0.628004193300  2.377153855800 -2.997998908700
C    0.234357443000  1.090645848500 -3.318838062200
C   -0.813188320500  0.487733378300 -2.643791952600
H   -3.490723025000 -0.506990936700 -2.525694581000
H   -4.150700842700 -0.963741790800 -0.952072708700
H   -2.539964085900 -1.511432491800 -1.415152856800
H   -3.442499116900  1.351206381500 -0.913773760000
H    0.268501061500  2.850264555000  2.030690770300
H    1.923032671200  4.266757754000  0.857553119600
H    3.382323208900 -0.328755462800 -1.838957654700
H    4.886367942300  1.106517052700 -3.127164205400
H    5.057546089100  3.516127239300 -2.621952717600
H    3.643978705600  4.504697613100 -0.860058998700
H   -0.271436524600 -3.627382504500 -0.483006504300
H    1.852176820800 -4.899789901100 -0.365284121500
H    4.243532073700 -4.953288901500  0.091751576900
H    6.324313208400 -3.801795154900  0.743367747700
H    6.297393222300 -1.374663617200  1.190481671700
H    4.241359982300 -0.082917756400  0.911643492600
H   -3.740601552100  1.852204609000  1.125141916400
H   -6.008459615900  1.510544304500  1.001841708900
H   -7.976253227900  0.039234137000  1.000892779100
H   -7.716320700700 -2.377425164400  1.437039109100
H   -5.470332816900 -3.307388386400  1.872649259000
H   -3.502094739800 -1.832109087300  1.865637613100
H   -2.031252811400  1.633452701900  2.926587325500
H   -3.694910728700  1.450347455200  3.509725069100
H   -2.658358063400  0.032090377700  3.321693483100
H   -1.567828738200  2.979169448400 -0.508800479300
H    0.268009872600  4.062169828700 -1.728408894200
H    1.441041345100  2.847633871300 -3.530827983600
H    0.742794646500  0.551459128800 -4.105674566900
H   -1.103303768100 -0.514585861900 -2.915949082400
