70
-106.10614810
C   -3.307320765500  0.697484782100  3.021429463600
C   -3.335233152000  0.398758018600  1.522800095600
N   -2.012739905700  0.604071093800  0.932302908500
P   -0.951408123500 -0.665281249300  1.174602403300
O    0.355163323600 -0.009367314200  1.993732697000
C    1.279732918100  0.859044217800  1.476987250800
C    2.108091970400  0.516182307100  0.423932939000
C    1.406965230300  2.107752423900  2.116492059700
C    2.302549579000  3.030992597000  1.665451036600
C    3.079978184200  2.772194549400  0.516683512700
C    2.976320025300  1.506627304400 -0.119394932900
C    3.709395971800  1.294537469400 -1.307554590200
C    4.534737376000  2.263067264200 -1.808553084400
C    4.671959115900  3.494445107400 -1.150931226200
C    3.952086170200  3.744033353700 -0.016333860600
O   -0.293864568600 -0.661179582500 -0.351571451700
C    0.861774625500 -1.396972579900 -0.505519646300
C    0.775198806500 -2.674031753100 -1.084016969700
C    1.905919209600 -3.412833388300 -1.275562813500
C    2.071065926300 -0.854051907500 -0.124418012600
C    3.246623146500 -1.651217509900 -0.233298999100
C    3.159711452700 -2.933703712300 -0.838591841000
C    4.327965732800 -3.714092500900 -0.967919243500
C    5.527644191900 -3.268011377600 -0.489003838100
C    5.604058135300 -2.025699853500  0.157823325800
C    4.493509471600 -1.237681305000  0.283645711700
C   -1.751554800000  1.792150197700  0.123180975600
C   -2.638608986300  1.805682039500 -1.106478121400
C   -2.254067607900  1.060469088600 -2.217129363600
C   -3.050575372800  0.999201858200 -3.346097056300
C   -4.252916220700  1.686099581200 -3.385733444900
C   -4.643601579500  2.436594430900 -2.291097790200
C   -3.843178572600  2.497705058500 -1.161729426000
C   -1.838008396500  3.078719662100  0.945106553300
C   -3.787221872500 -1.007813544100  1.191239754400
C   -4.113335393500 -1.294714697800 -0.131317490600
C   -4.489616844500 -2.569102635800 -0.511864714300
C   -4.553512084700 -3.583642895300  0.429115071600
C   -4.239108571000 -3.308232303900  1.747933916500
C   -3.858689875400 -2.031470051300  2.127345407300
H   -3.082146040400  1.747156407400  3.190512849100
H   -2.528812263800  0.104963505200  3.498207822100
H   -4.270126314400  0.470511894800  3.473377757800
H   -4.026370798000  1.092590671400  1.030727272800
H    0.787865597700  2.293569884200  2.981900468600
H    2.410020801200  3.980956171300  2.168358699300
H    3.601514808500  0.355841981700 -1.829794680000
H    5.084183845200  2.083841902400 -2.721305779800
H    5.336920652400  4.243946127300 -1.554513407700
H    4.030684939300  4.696723354500  0.488021703700
H   -0.201075783800 -3.036114040200 -1.370790007500
H    1.851485238100 -4.386758060400 -1.739330762600
H    4.250454925700 -4.680494175000 -1.445425180100
H    6.417205507900 -3.872254757200 -0.590469199900
H    6.549200368500 -1.694216569400  0.562530458800
H    4.561453922600 -0.289457537700  0.794745675800
H   -0.716118971500  1.688973617000 -0.222353912800
H   -1.322848064000  0.514581179900 -2.186777877500
H   -2.732244310000  0.413310321500 -4.196607711000
H   -4.879321916600  1.638105667800 -4.264649738400
H   -5.578047049300  2.979057026900 -2.312772034500
H   -4.170386347900  3.100535890400 -0.328252846500
H   -1.613408736600  3.930880494700  0.307054842900
H   -2.824120330300  3.215435570800  1.379251956700
H   -1.108440918400  3.045418645500  1.749693064500
H   -4.066495464900 -0.507078877700 -0.869140942800
H   -4.736767889700 -2.768883089700 -1.544820910400
H   -4.847606925400 -4.580978033700  0.135803011700
H   -4.287292496700 -4.092304376000  2.489904418800
H   -3.616599024600 -1.845542639200  3.161238988500
