70
-106.10444841
C   -2.953824190500 -0.220954822200  3.171892805500
C   -3.495203732100 -0.056906672800  1.751315869500
N   -2.412514803400  0.020647023800  0.774186944500
P   -1.062051822700 -0.936524505300  1.117652321300
O    0.048064292600  0.121535470300  1.804680102200
C    0.882313156000  1.007782715900  1.186782182300
C    1.762347232900  0.635143162400  0.188171331000
C    0.880616824400  2.324090093200  1.688735495400
C    1.717132923000  3.266703602600  1.171883187000
C    2.535742051200  2.965223772300  0.063560254600
C    2.540953545900  1.642941044000 -0.451055281500
C    3.295296938100  1.383886411600 -1.615537844100
C    4.041882618800  2.365926452700 -2.205680186000
C    4.077831267300  3.658199809400 -1.662228886100
C    3.333048274600  3.950435741200 -0.554085091800
O   -0.466497247300 -0.979010579200 -0.413974188900
C    0.796373498900 -1.534815735400 -0.506773347700
C    0.904720225500 -2.864719331600 -0.945864112200
C    2.131293221900 -3.450042736700 -1.062950282800
C    1.908303379600 -0.781974441100 -0.194848839600
C    3.186884690900 -1.414858386800 -0.211087561200
C    3.295314733300 -2.753462925200 -0.674784958800
C    4.563251048100 -3.371438407100 -0.710810479200
C    5.677510689600 -2.714575753100 -0.270448747100
C    5.563638853100 -1.414663020400  0.243878719900
C    4.351919993400 -0.781340181700  0.273528631900
C   -2.805585355600  0.537947949400 -0.539553808900
C   -1.753939330000  1.481760883700 -1.086823864000
C   -1.004680850100  1.223958884800 -2.226829497800
C   -0.095541669700  2.155187077400 -2.698172411100
C    0.070104472200  3.364962091000 -2.048392242600
C   -0.671457455600  3.632992472200 -0.911215640600
C   -1.570242335100  2.696945052700 -0.435556620900
C   -3.236127795600 -0.555176553500 -1.519202040600
C   -4.495848576600 -1.157135046700  1.465340470900
C   -5.856984131900 -0.883694939900  1.436312200900
C   -6.774428855100 -1.893501078500  1.198649294100
C   -6.339690981500 -3.190298606300  0.986185553700
C   -4.983253238700 -3.472326591300  1.013524344000
C   -4.070124797700 -2.462240672800  1.254459482000
H   -2.570191584600 -1.225822856500  3.328725389000
H   -3.753314664700 -0.041618387600  3.888372719200
H   -2.149914748900  0.489606766500  3.348172615400
H   -4.025917841200  0.906096889800  1.708512096100
H    0.212886149500  2.549558871700  2.506756085400
H    1.738118362700  4.265404124100  1.583400950800
H    3.264483228000  0.396639531600 -2.051493206700
H    4.606626177500  2.150081537300 -3.101228441200
H    4.682460481600  4.419347360400 -2.133803966300
H    3.329882477300  4.949144099000 -0.140328664600
H   -0.002706521900 -3.396759342500 -1.190810359400
H    2.222891397900 -4.464264638100 -1.422629473200
H    4.631308299600 -4.383844392300 -1.082744594600
H    6.644506772200 -3.195047505200 -0.298271537400
H    6.442325694400 -0.914418643200  0.624174017000
H    4.276084375700  0.212796934400  0.686350521900
H   -3.694039066700  1.159790407500 -0.350077840500
H   -1.119737043600  0.290530479400 -2.754376365000
H    0.483636667100  1.935388774200 -3.583741442400
H    0.773993964300  4.092581824300 -2.424366073300
H   -0.553303627800  4.575510964300 -0.396718794600
H   -2.147184849900  2.911705046600  0.453670748300
H   -3.534082751800 -0.103251807800 -2.462931403000
H   -2.430407488400 -1.259855989900 -1.695852989400
H   -4.084853238000 -1.098086801100 -1.110073691200
H   -6.203386197400  0.127652458300  1.600091122800
H   -7.830400878400 -1.665652478700  1.177430669800
H   -7.054036487500 -3.978573576000  0.798627160600
H   -4.636945427800 -4.482260689600  0.847873557500
H   -3.010671252400 -2.680935845800  1.265942181600
