70
-106.10652595
C   -2.012843642500  2.728783382700  1.734343019100
C   -1.847518538200  1.654296561700  0.658556480200
N   -1.999472971000  0.321240392800  1.236347280900
P   -0.780517909600 -0.816903397900  1.331149966500
O    0.486026229800 -0.020939832400  2.073711527000
C    1.362334718100  0.874567702300  1.517363276600
C    2.147280164900  0.573820154200  0.419144226100
C    1.498194813900  2.112342997200  2.177624739000
C    2.346047644900  3.067219305700  1.702359870200
C    3.065893243600  2.854262935900  0.507575863700
C    2.958629305800  1.599869589600 -0.148479661100
C    3.629771084100  1.431768357400 -1.379453383600
C    4.402664400900  2.431190423800 -1.903132807600
C    4.546685614900  3.651371775400 -1.226712689800
C    3.883788737400  3.858963309000 -0.049668674800
O   -0.244054860200 -0.689428196600 -0.244946988900
C    0.930824577700 -1.362466165300 -0.502110596700
C    0.867724531600 -2.621299230200 -1.122499274700
C    2.016276673500 -3.306704602600 -1.390459636500
C    2.134568302900 -0.782700866400 -0.160994480400
C    3.334213894600 -1.528307796500 -0.348156340600
C    3.269188789200 -2.793921641600 -0.990284603500
C    4.458754556100 -3.524911504100 -1.192440304000
C    5.660324337400 -3.048498495500 -0.748589666100
C    5.718162789400 -1.824466377100 -0.066152146600
C    4.585696688300 -1.083289226200  0.129853309800
C   -3.331952937600 -0.100812649200  1.669412154800
C   -3.799920450300 -1.274692036600  0.837152669600
C   -4.649243879800 -1.054328020200 -0.240715569200
C   -5.047291804400 -2.097752716200 -1.057946512100
C   -4.605082552000 -3.384742618300 -0.805080752700
C   -3.771680694500 -3.618461805500  0.275488643300
C   -3.373067161200 -2.572831702600  1.090456636700
C   -3.350268302600 -0.390890409100  3.170260144200
C   -2.764254843500  1.829952388900 -0.535932030300
C   -2.477370657600  1.124394509900 -1.700324871600
C   -3.294730362500  1.219039387800 -2.810809435700
C   -4.420372598500  2.025873554900 -2.777858751500
C   -4.714709247000  2.735247209800 -1.627308424400
C   -3.894139257800  2.638438900900 -0.514565059100
H   -3.000927733100  2.693044420000  2.185756874100
H   -1.850488894800  3.714367826500  1.304261980500
H   -1.279200134900  2.564361152700  2.518567496700
H   -0.816187908500  1.704542602000  0.286599112800
H    0.924667477900  2.266923639700  3.079067102800
H    2.458613890600  4.006976031800  2.222793870500
H    3.515208508400  0.502879966700 -1.917428061100
H    4.904199035100  2.285121449800 -2.848801780500
H    5.170418465200  4.425560429200 -1.649073089700
H    3.966344628700  4.802653431200  0.470661202300
H   -0.105209795700 -3.013036423100 -1.379550788800
H    1.978452557200 -4.265625074700 -1.886088352300
H    4.396845629400 -4.478665180600 -1.696904446200
H    6.566357619000 -3.615332422200 -0.905241911600
H    6.666574280500 -1.469790225900  0.310309312900
H    4.640314863200 -0.149211934700  0.667916575800
H   -4.010182659500  0.734799079700  1.467214967800
H   -4.999933603900 -0.053471496100 -0.447965816100
H   -5.704114682600 -1.902650663300 -1.893525696100
H   -4.912290740200 -4.201383665600 -1.442368609400
H   -3.429168269600 -4.621300360500  0.487371759100
H   -2.732255979600 -2.778830497800  1.933535682100
H   -4.319636333100 -0.787484136400  3.463864050700
H   -2.576536257100 -1.110604750200  3.425394364900
H   -3.156881013700  0.522749146700  3.727435883900
H   -1.605466781600  0.488480802300 -1.726543574700
H   -3.053363741300  0.661009221900 -3.704176846700
H   -5.062902368700  2.101156267400 -3.643202809300
H   -5.590245355700  3.368069995200 -1.590544888300
H   -4.148227334600  3.206810272900  0.366822007100
