70
-106.10156666
C   -3.309666261400 -0.990511747500  2.459291873700
C   -3.457204288400 -0.549805287500  1.005289105000
N   -2.207754251500 -0.050075809700  0.425475427900
P   -0.803289323500 -0.711436357600  1.046032982300
O    0.154186562400  0.604895046900  1.432348279300
C    1.127913299400  1.235129189600  0.711487803600
C    2.139473855100  0.571701151900  0.041729010600
C    1.088836982000  2.646170608200  0.736316185700
C    2.009856089000  3.382932680100  0.055274475500
C    2.983997063100  2.747818719900 -0.743830131900
C    3.038528152200  1.329757000500 -0.767749587900
C    3.958993011700  0.716360460500 -1.645531147100
C    4.813413704500  1.463732282200 -2.408512199700
C    4.795012664300  2.864076697600 -2.338175004300
C    3.890077137000  3.490850249200 -1.528227793900
O   -0.032907811700 -1.165830066100 -0.365044609200
C    1.211097282000 -1.713365576100 -0.127922823700
C    1.343698163000 -3.112168415600 -0.158671814000
C    2.552309732300 -3.691922861900  0.091924093600
C    2.288100882500 -0.892436112200  0.134208991200
C    3.530015186700 -1.488592239700  0.503153191000
C    3.663095156300 -2.901961313600  0.458767977100
C    4.897431721000 -3.489558506900  0.806827276400
C    5.949356788200 -2.721210408200  1.220053483700
C    5.801794987000 -1.329993492200  1.319262679700
C    4.624040180500 -0.728657763600  0.970569274900
C   -2.487705403300  0.807307088100 -0.725942460900
C   -3.125509254800  2.106868202000 -0.272581714700
C   -2.710828491200  2.733433547400  0.894595124000
C   -3.268783099000  3.937976088700  1.284261630600
C   -4.249198570100  4.532400582500  0.507485122900
C   -4.670507564700  3.913251610900 -0.657555286800
C   -4.112673781700  2.706942874900 -1.043817112200
C   -1.281684745200  1.146695899800 -1.597816553700
C   -4.024486333600 -1.681782967000  0.176380876600
C   -5.331598344700 -1.643607905900 -0.289327834600
C   -5.839250968200 -2.689048669800 -1.042700851400
C   -5.042516469100 -3.781207622800 -1.340635440300
C   -3.736104707800 -3.825489387900 -0.880688929900
C   -3.233947783900 -2.781804985200 -0.125557864600
H   -2.771718110400 -0.232437987200  3.024532718800
H   -2.772286200600 -1.931849976500  2.533586169700
H   -4.298652431800 -1.122743232500  2.893610436600
H   -4.167799358900  0.288239237100  0.985538836700
H    0.311032440600  3.118783498900  1.316626367000
H    1.984088602000  4.462032261900  0.095234418600
H    3.974343533300 -0.360021683400 -1.724146204000
H    5.506452637700  0.973946394400 -3.077107128900
H    5.485533355300  3.438704443000 -2.937996880100
H    3.844095099300  4.569779353100 -1.483482131400
H    0.469902933600 -3.701088093200 -0.394231858900
H    2.665771348000 -4.765021853600  0.045694479900
H    4.988802905900 -4.565024642200  0.751892377600
H    6.890654978000 -3.178534212900  1.487547664500
H    6.626345128000 -0.732094258800  1.679318205000
H    4.518289424400  0.341387666300  1.064509537300
H   -3.209540371700  0.267764130800 -1.361001262600
H   -1.955229067700  2.259367757800  1.503992883200
H   -2.938984284200  4.413980854100  2.196894598800
H   -4.686253489400  5.472783251600  0.810487830000
H   -5.438635391300  4.369243015800 -1.265693545300
H   -4.447005903200  2.223145692900 -1.951598126200
H   -0.837836161200  0.246764834400 -2.012996022600
H   -1.614231251000  1.781736943700 -2.417516661300
H   -0.531221511600  1.690758306200 -1.031544009200
H   -5.955292366200 -0.790105394600 -0.060806502400
H   -6.858045589600 -2.648400841600 -1.400377835600
H   -5.437114573700 -4.595544901000 -1.930739876200
H   -3.110815565200 -4.676144671600 -1.111168594800
H   -2.213156399000 -2.806527168300  0.231500672500
