70
-106.09957682
C   -3.804094548900 -1.033614160100  1.312547694800
C   -2.703832824300  0.022064027500  1.187771647700
N   -1.873292885000 -0.087118339600 -0.016508531800
P   -0.764634720000 -1.397547084300  0.111073440800
O    0.171931463200 -0.935419113500  1.393188410000
C    1.010582821100  0.158624325000  1.397415642200
C    2.096953473400  0.239039495100  0.548848533000
C    0.769759676900  1.154341822300  2.361147822400
C    1.572468622400  2.255542536500  2.432170695800
C    2.620891019000  2.439515546700  1.507006447400
C    2.882355097100  1.427144996100  0.545737669200
C    3.893884690900  1.658695936000 -0.412039188800
C    4.634193850400  2.808193465900 -0.389502543500
C    4.404369079000  3.786491258900  0.589589923600
C    3.412901951900  3.607113039400  1.512669745200
O    0.182942290600 -0.869804604200 -1.144503166400
C    1.454643479600 -1.406681157500 -1.171937391500
C    1.732344622900 -2.442679071000 -2.078160615400
C    2.986124000000 -2.978454966400 -2.138218675600
C    2.426161315000 -0.896807538900 -0.336755331600
C    3.712710322500 -1.506225001700 -0.325097118300
C    3.995646904700 -2.544101762200 -1.253596661400
C    5.277006239200 -3.135085066200 -1.256101151900
C    6.231302126500 -2.746071499200 -0.358859818400
C    5.936338216600 -1.757736770500  0.592260225900
C    4.710064602600 -1.153177740800  0.610038151100
C   -2.457693361300  0.105069435700 -1.350041215000
C   -3.570581637300 -0.865581619200 -1.693660690500
C   -3.241297444200 -2.207643580900 -1.850759138800
C   -4.201987094700 -3.150365843800 -2.165220088300
C   -5.518970524200 -2.760218066000 -2.344166134600
C   -5.858022318200 -1.425516488300 -2.207703344900
C   -4.893129920400 -0.484578796000 -1.886244641900
C   -2.819262957400  1.566540947500 -1.609315653700
C   -3.178140249800  1.445349759500  1.400078170700
C   -4.503100228900  1.776676922900  1.652434876700
C   -4.869896630400  3.095018910100  1.874443098200
C   -3.921173828000  4.101275888100  1.852793773500
C   -2.595787291000  3.780992489700  1.606228949600
C   -2.231630668200  2.466846131900  1.385194253600
H   -3.373244180400 -2.016492209400  1.125700860800
H   -4.609985258300 -0.873437526100  0.603786756600
H   -4.206558114700 -1.021285117700  2.323574003100
H   -1.997229647900 -0.184133287100  2.006968413700
H   -0.051491075000  1.012775479200  3.047979817100
H    1.394902300000  3.011145593600  3.183323731200
H    4.070335835600  0.918674080600 -1.177929856400
H    5.400939268600  2.970499473300 -1.132976521700
H    5.006176839800  4.683441597700  0.598813304100
H    3.210807345500  4.362133866300  2.259072651500
H    0.936261084300 -2.788048685500 -2.721027553900
H    3.212439472800 -3.761976572000 -2.846233206400
H    5.483364017500 -3.912336100500 -1.977973495800
H    7.209167113800 -3.204723441400 -0.365598684000
H    6.686057866400 -1.477994957600  1.317878556700
H    4.489718805000 -0.403344413800  1.354373932100
H   -1.631729015100 -0.128881229300 -2.032153029300
H   -2.210159076700 -2.512679168100 -1.721931366700
H   -3.922363840200 -4.187929684700 -2.277566554000
H   -6.274023624000 -3.491424749600 -2.593140364900
H   -6.881994156000 -1.111096607100 -2.351570609600
H   -5.184518471100  0.548778977600 -1.780758373500
H   -3.641199049700  1.904269888100 -0.986770100600
H   -1.955692039600  2.193938484300 -1.403381825600
H   -3.093160805900  1.683005299000 -2.656220763900
H   -5.265266925800  1.013998263500  1.674764171500
H   -5.906499534800  3.333336555300  2.066463264000
H   -4.211050145200  5.127199903300  2.027631170400
H   -1.843598696600  4.556655137100  1.587779984700
H   -1.199592224200  2.219718358500  1.185376768500
