70
-106.10103876
C   -2.336309126500  2.073937845600 -0.342849237200
C   -1.969788024300  0.605865353600 -0.567243475800
N   -2.023142889600 -0.177624927000  0.666124823600
P   -0.653610142100 -0.776756057400  1.419173361600
O    0.356335532400  0.532925670300  1.630813757400
C    1.192496161500  1.122984441800  0.717212300700
C    2.166295893700  0.425896362000  0.026482974700
C    1.070284283600  2.519286234700  0.570862675800
C    1.854722297900  3.198827525300 -0.311987107600
C    2.767769904400  2.508394091600 -1.136941375800
C    2.918965613200  1.106186404000 -0.975871481100
C    3.783154119300  0.422834918700 -1.859039530500
C    4.493896005300  1.097939476200 -2.812783775400
C    4.380058127900  2.490376082700 -2.935861378600
C    3.527247078900  3.178022152200 -2.118636243600
O    0.082046609400 -1.427208456900  0.069881683500
C    1.362256216400 -1.889753835100  0.291904435400
C    1.557572451600 -3.268006317500  0.480733564300
C    2.812231545000 -3.754104054700  0.704298696100
C    2.414798738800 -0.999845829200  0.311733824000
C    3.715075122400 -1.481193915100  0.640660914400
C    3.912550157100 -2.876974329300  0.816414447700
C    5.202832311400 -3.356070240500  1.126113153600
C    6.250608419200 -2.494691447200  1.293013680000
C    6.045405155300 -1.112377633800  1.172783482500
C    4.810725026100 -0.617393114300  0.855310557500
C   -3.270065075000 -0.573054974800  1.318103372300
C   -4.122315690600  0.618137394400  1.696569805800
C   -3.624432642900  1.490560079300  2.660529582600
C   -4.346980920000  2.599743977300  3.057041793200
C   -5.590719851800  2.850563801500  2.499179632700
C   -6.099470803500  1.984262277000  1.547853027200
C   -5.372180653400  0.873779944100  1.148861772400
C   -4.016392118800 -1.678199143900  0.570928588500
C   -2.731307170800 -0.043331130000 -1.705270145200
C   -3.907057386400  0.478883844000 -2.230356330700
C   -4.560039343200 -0.162155926400 -3.270879753000
C   -4.049007571900 -1.331869026000 -3.804967701200
C   -2.872882534900 -1.856485222600 -3.294506684100
C   -2.220863600100 -1.214129251200 -2.258472909900
H   -2.106979321700  2.644057335100 -1.240989050400
H   -1.748678289700  2.468208831200  0.481335447600
H   -3.384453938300  2.201097630500 -0.094864124900
H   -0.909632059300  0.584936620800 -0.857646337100
H    0.350732228500  3.030117001600  1.192708824800
H    1.768346607300  4.271285334400 -0.406538191100
H    3.868697976800 -0.650708951100 -1.785036374100
H    5.145971820400  0.556421240700 -3.482578237200
H    4.957578579900  3.008947196300 -3.687050805800
H    3.411181754100  4.247953956100 -2.217686716000
H    0.694600837900 -3.915670339800  0.437243572300
H    2.974195382900 -4.814552713700  0.829510172200
H    5.341832235000 -4.421562856100  1.241457118800
H    7.234950409300 -2.869050306400  1.533040745000
H    6.871233882900 -0.435868713400  1.337957329400
H    4.661778095900  0.448875163500  0.778786640400
H   -2.930761482300 -1.018845664900  2.266992733100
H   -2.652670879000  1.290530834400  3.092610506700
H   -3.944019074900  3.267139594300  3.805258339700
H   -6.160418145700  3.714966586600  2.807784840500
H   -7.070192990000  2.171071772900  1.111082963500
H   -5.786462481600  0.213616598300  0.403423597900
H   -4.411417639600 -1.337800359700 -0.379914472300
H   -3.329150084800 -2.499414265400  0.378617435800
H   -4.834015760700 -2.043100866300  1.188825860700
H   -4.330161932900  1.386823830100 -1.830739936700
H   -5.474766568000  0.257639044300 -3.665016129400
H   -4.561254249600 -1.829795306200 -4.615484668300
H   -2.460722945000 -2.765957314600 -3.708045591200
H   -1.304161180300 -1.624585745600 -1.861413486400
