70
-106.10027611
C   -0.923639930300  1.756462908600 -1.416773985300
C   -2.179645820400  0.932722677400 -1.120943536000
N   -1.923201447700 -0.497986542000 -1.075727343500
P   -0.612290160600 -1.391382875400 -0.530812759800
O   -0.076247659600 -0.661463305800  0.855931444800
C    0.865005474600  0.319447191600  1.030747321500
C    2.131650481200  0.268440201400  0.480505573500
C    0.488856185000  1.379876523300  1.881965948900
C    1.349432423300  2.404267016700  2.138179404100
C    2.609795747700  2.455791829900  1.505551804900
C    2.998085038200  1.390387878400  0.651842739200
C    4.220184847500  1.509555600700 -0.045310716700
C    5.035554817100  2.592157342000  0.138942692000
C    4.674679684600  3.615087189800  1.027624504600
C    3.480298556400  3.550114799200  1.688668038600
O    0.571463583900 -0.822821544300 -1.577777561300
C    1.809003884200 -1.375031525100 -1.334383983000
C    2.252552982600 -2.421563841100 -2.161519866100
C    3.464014558000 -3.006098938700 -1.937096006700
C    2.582213368700 -0.903186584900 -0.293546563000
C    3.800267690600 -1.575320978600  0.017304491100
C    4.251537773800 -2.621842380200 -0.830402611600
C    5.466556265000 -3.274062093400 -0.533265196900
C    6.191157384400 -2.938083532300  0.575701128000
C    5.717818506800 -1.944364394100  1.445032205600
C    4.553503486500 -1.280068384600  1.174285987700
C   -2.960830033000 -1.352904352800 -1.660981445600
C   -4.314613665700 -1.051937947000 -1.056832996900
C   -5.247518019600 -0.218363670300 -1.658889087800
C   -6.456832093500  0.050710552700 -1.040033224100
C   -6.753025473000 -0.509917698100  0.189173105500
C   -5.834423883400 -1.351029895900  0.794494194600
C   -4.628823706500 -1.618479959700  0.173908773500
C   -2.926968791000 -1.311182257900 -3.189718407600
C   -2.875180197100  1.460691733900  0.120749504000
C   -2.893946603900  0.769864424100  1.321906724100
C   -3.536106333400  1.295547862700  2.430432706500
C   -4.172783052000  2.520972394300  2.351665312900
C   -4.167020823100  3.216044125000  1.153602913100
C   -3.525451088000  2.687974665200  0.048884196300
H   -0.427798344700  1.372939481800 -2.305329805700
H   -0.227088333200  1.724562307600 -0.584361372900
H   -1.199866652400  2.794948164500 -1.586197863100
H   -2.867790430000  1.097230094900 -1.959903949100
H   -0.499194498000  1.350393028700  2.315084491000
H    1.061520445400  3.204316639500  2.804145670400
H    4.504148620400  0.738705030300 -0.745293896000
H    5.964278297800  2.665814473800 -0.407976735800
H    5.336387523900  4.456710314700  1.171009798300
H    3.174690889700  4.343592449400  2.355780043900
H    1.611788578100 -2.735564545100 -2.971947023700
H    3.820470680700 -3.794109757600 -2.584090411400
H    5.805877584700 -4.056687575500 -1.196836781800
H    7.119263829600 -3.443915558500  0.798154440100
H    6.278362565100 -1.707755179800  2.337680581200
H    4.192484952100 -0.526774625400  1.857890618200
H   -2.689915987900 -2.375655622600 -1.363524486100
H   -5.044863275400  0.225615239000 -2.621489806800
H   -7.170069808700  0.703295286500 -1.522703288300
H   -7.695843525100 -0.296905013900  0.671326349600
H   -6.058639849500 -1.800011060900  1.751255824500
H   -3.913514612500 -2.277246686900  0.647250036200
H   -3.705552624500 -1.953554821400 -3.593799867100
H   -3.067633031600 -0.304852664400 -3.574586898900
H   -1.958379086900 -1.669099271300 -3.531761064700
H   -2.407381851800 -0.191098590700  1.392649209400
H   -3.539642874500  0.741164519400  3.358462197800
H   -4.675429552100  2.930456607700  3.215907195300
H   -4.668409179000  4.170463989200  1.078894405000
H   -3.536870158300  3.232314076100 -0.885391883800
