70
-106.10178528
C   -3.125661467600  1.296639829700  2.562965015900
C   -3.579871081700  0.396298567000  1.411161920300
N   -2.528335076600  0.332565220400  0.381611685900
P   -1.432814442000 -0.962111461300  0.579166069000
O   -0.282263230200 -0.310459181700  1.603446470700
C    0.604796870700  0.677797474900  1.254452306300
C    1.555243124600  0.488827876200  0.269498226200
C    0.570636977400  1.871513112800  1.998855899500
C    1.453154141400  2.877695655000  1.738728549700
C    2.370516612400  2.769547593300  0.673320520400
C    2.406883216000  1.571770332000 -0.087475022100
C    3.267696360500  1.516574356700 -1.204964950700
C    4.082794252400  2.568394680400 -1.518790320200
C    4.083757450800  3.730364729800 -0.732796504800
C    3.238499176100  3.829123692800  0.336202023700
O   -0.666086270000 -0.746875169900 -0.863547992500
C    0.550550512400 -1.390726058000 -0.964697127900
C    0.618888457600 -2.601699113900 -1.672291768900
C    1.813046315000 -3.248990440000 -1.806130607800
C    1.672177875000 -0.820734214500 -0.401059946500
C    2.905797160700 -1.529960540500 -0.453257356000
C    2.975560255100 -2.746165087500 -1.184810622700
C    4.203245564000 -3.438454554800 -1.254468663900
C    5.309997870500 -2.972915768900 -0.602217207000
C    5.229027498200 -1.800456404400  0.164049709800
C    4.058673761700 -1.097313643300  0.237889179500
C   -2.907789380200  0.838991185800 -0.938517227600
C   -1.745193388700  1.560263095700 -1.590555026800
C   -1.286166638600  1.280543070500 -2.870447658100
C   -0.238845422300  2.003694428800 -3.416240268100
C    0.355011668100  3.027972120300 -2.700940349400
C   -0.104457743700  3.324049414600 -1.429131567300
C   -1.142186113300  2.594161067100 -0.881989827500
C   -3.559862701900 -0.240291655500 -1.802524434500
C   -4.013681736400 -0.964615316000  1.905627458100
C   -5.205835343400 -1.514147342300  1.450256987100
C   -5.621694103900 -2.765441362200  1.872213314400
C   -4.847780137100 -3.487128843400  2.763769943300
C   -3.662072384600 -2.946106916000  3.232240107200
C   -3.249588546100 -1.694779135200  2.810120327900
H   -2.920129675100  2.297722579900  2.189547343100
H   -2.222228690100  0.902491188300  3.016905236600
H   -3.905748385200  1.354357002500  3.319382100400
H   -4.458008824300  0.866823394500  0.951342332900
H   -0.157685333700  1.958619976500  2.790295057900
H    1.439901465500  3.782113549500  2.329995822600
H    3.264721208300  0.633454148100 -1.825755736000
H    4.730195554100  2.510551195500 -2.381898754500
H    4.743309216000  4.547112195000 -0.987993475400
H    3.210527639900  4.728737784400  0.935185971500
H   -0.289254999700 -2.994103330700 -2.105078115800
H    1.876201378400 -4.170490051000 -2.366043509700
H    4.245844901700 -4.353862078100 -1.827333540900
H    6.245818242900 -3.509396163700 -0.658873449700
H    6.100105036400 -1.456135739800  0.702263878800
H    4.003970500800 -0.203664373100  0.840630778200
H   -3.664088227900  1.617202876500 -0.752181747700
H   -1.730234944000  0.486688959400 -3.449795623000
H    0.112759734500  1.764525993400 -4.410170806700
H    1.169942011500  3.592682906300 -3.129584939800
H    0.345305383400  4.127276412700 -0.864575053100
H   -1.492291698400  2.823263711000  0.114206361200
H   -2.840686317200 -1.018252938100 -2.042331977300
H   -4.380618193900 -0.694512335800 -1.251033952200
H   -3.952592401000  0.190230447100 -2.721001864300
H   -5.824363101200 -0.954085364200  0.761391524400
H   -6.552610406300 -3.173679544300  1.505760915500
H   -5.168597438900 -4.463826970300  3.095341280700
H   -3.054332027300 -3.500548228900  3.932406524200
H   -2.325186745100 -1.287263516800  3.190285434400
