70
-106.10035677
C   -1.518987485700  2.409440536100  0.104987146900
C   -2.765251275000  1.527574976200  0.181208419300
N   -2.505137979800  0.131677352000 -0.135871338300
P   -1.135119827700 -0.835939367600 -0.127430714300
O   -0.290657181100 -0.429256746500  1.247369605300
C    0.781348005400  0.403022684400  1.421220577700
C    1.877310223800  0.450615149700  0.579650231300
C    0.738899815300  1.196125183400  2.589068497500
C    1.743309729000  2.068600282100  2.880312549400
C    2.816094381800  2.247599712400  1.981627925400
C    2.874219031700  1.447306877200  0.811209752600
C    3.902676948500  1.709721092300 -0.120187606800
C    4.849643997300  2.666252331900  0.123206055200
C    4.821884219100  3.413612158100  1.309282547500
C    3.817576956500  3.212656746100  2.214155853500
O   -0.203900231200 -0.006070413400 -1.241524464300
C    1.002424485700 -0.636230838400 -1.460025476200
C    1.142220157200 -1.440637982900 -2.603471426400
C    2.312068041400 -2.102424889500 -2.833558933100
C    2.028278597300 -0.484411443500 -0.550837911900
C    3.216890525600 -1.253532712100 -0.724833020100
C    3.363160061000 -2.049560924100 -1.892217701500
C    4.546802966400 -2.795243267600 -2.073853800300
C    5.532704995200 -2.790733142000 -1.127382407000
C    5.364254022700 -2.052002967000  0.052758888900
C    4.236592575400 -1.303713650400  0.250135427000
C   -3.667717567800 -0.655563090200 -0.568683847200
C   -3.245759483400 -1.477675176300 -1.768748595500
C   -3.190222843400 -2.865517584300 -1.776981699400
C   -2.766753343300 -3.546761776800 -2.906304500100
C   -2.397218365100 -2.854900871600 -4.046069658300
C   -2.456796759200 -1.470563765400 -4.052140157200
C   -2.879909702900 -0.792366707600 -2.924876768600
C   -4.255914436500 -1.474159424000  0.577051371500
C   -3.422877261600  1.710922530800  1.534739514000
C   -3.039760995800  0.948764560600  2.629681182800
C   -3.624153706600  1.149963365900  3.867725465500
C   -4.601107048100  2.118665421800  4.026365710800
C   -4.991252432600  2.882290284500  2.939140547000
C   -4.405665967900  2.678350053100  1.701712955700
H   -0.833541975100  2.190336934800  0.917733774000
H   -1.816502275900  3.453559216600  0.185327935600
H   -1.007940384700  2.259186492800 -0.842454705500
H   -3.465802839100  1.897670338500 -0.585058269500
H   -0.111575982600  1.082182508600  3.244307938000
H    1.711414383900  2.655775294600  3.786282282500
H    3.928365937000  1.155303344000 -1.045830570100
H    5.624399914600  2.854245524700 -0.605874863600
H    5.585179839300  4.155809594100  1.491722005500
H    3.765262816700  3.799963113200  3.119935081300
H    0.301525043000 -1.510052653000 -3.277048369000
H    2.435704970800 -2.704058244000 -3.721974001300
H    4.651155606900 -3.382365869800 -2.975146145700
H    6.435234990400 -3.366080294900 -1.272836494400
H    6.131984266600 -2.080507342200  0.812226241800
H    4.112849843400 -0.750621271900  1.168685736700
H   -4.434848954500  0.053872040700 -0.907857096700
H   -3.470764921600 -3.427645888500 -0.900947929400
H   -2.724372332100 -4.626252134000 -2.892869388600
H   -2.064356423500 -3.388953879800 -4.924263929500
H   -2.174110241200 -0.918512387000 -4.937654537200
H   -2.922855604100  0.287711504600 -2.933710694900
H   -5.086643933500 -2.079599918300  0.222529582800
H   -3.489451528000 -2.116582245600  1.005273442300
H   -4.618339726100 -0.806626909800  1.355073015900
H   -2.289280602300  0.182953305600  2.501160529800
H   -3.317785791100  0.547096317900  4.710995910100
H   -5.059198866900  2.275474378200  4.992175133900
H   -5.756313905800  3.636822501500  3.053834936100
H   -4.716437395900  3.276344119400  0.855626116900
