70
-106.10655139
C   -2.148177281600  2.631699771400  1.977687505700
C   -1.900862254700  1.656860772300  0.825296224500
N   -2.048574361200  0.275419903400  1.274383895200
P   -0.821213270100 -0.857209228500  1.311845971800
O    0.442964370900 -0.077093992400  2.069167095000
C    1.306213488300  0.842282910000  1.528590914500
C    2.087411629200  0.576224609800  0.419065404200
C    1.428462025300  2.067804176600  2.214028029900
C    2.262174746500  3.043193146800  1.755556365200
C    2.980097246100  2.864613608800  0.553964322100
C    2.884546290000  1.623748767900 -0.129062422300
C    3.550982059800  1.490890298600 -1.366880494900
C    4.307663962600  2.511474700000 -1.873126964900
C    4.439485458900  3.718651145000 -1.171385029300
C    3.781387769600  3.891851082200  0.013898801000
O   -0.300062199800 -0.671961434800 -0.265349418700
C    0.873504714300 -1.334469471100 -0.552547981000
C    0.810672027400 -2.573920594800 -1.210825489300
C    1.959617129100 -3.249663227800 -1.501069698200
C    2.078012471000 -0.763550627700 -0.198959985400
C    3.278436129900 -1.500015207800 -0.412523308800
C    3.213106720200 -2.747480947300 -1.089125297900
C    4.403047437100 -3.471247766800 -1.313737053300
C    5.605277443800 -3.004938381600 -0.860935988300
C    5.663873116100 -1.798571085800 -0.147715313200
C    4.530941479200 -1.064758989200  0.071746842300
C   -3.377955426900 -0.219596745600  1.635081634800
C   -3.693800351300 -1.428720408400  0.782537733000
C   -4.297860846000 -1.243213555400 -0.455911134500
C   -4.537493880800 -2.314169781900 -1.298205944200
C   -4.185392821600 -3.595365963900 -0.908909621300
C   -3.596266663700 -3.793638145800  0.327995986500
C   -3.349727615800 -2.719511984300  1.166288586800
C   -3.469769818900 -0.494541380700  3.136083289900
C   -2.755151891200  1.924343586500 -0.397638276400
C   -2.321497215500  1.443925965300 -1.629281824600
C   -3.079111394200  1.624094037600 -2.771630159800
C   -4.290024086500  2.293689493400 -2.703405606100
C   -4.729903586400  2.781262754400 -1.485677462200
C   -3.969291270700  2.598667388600 -0.341761994800
H   -1.988816963100  3.653099188100  1.639547299000
H   -1.453593791400  2.415477670100  2.785121375800
H   -3.157462302000  2.539691737200  2.369284763700
H   -0.853478711200  1.758080608400  0.514947972800
H    0.852206140900  2.198426500800  3.117280901400
H    2.363220841300  3.973975026700  2.294126503100
H    3.445714997400  0.572270789700 -1.924004286400
H    4.805589009300  2.392298877800 -2.824452507800
H    5.049972209200  4.510192531300 -1.580722532800
H    3.854728692400  4.825116642200  0.554010837900
H   -0.162300304400 -2.958655807000 -1.477452324000
H    1.921709188800 -4.193838247700 -2.024273507500
H    4.340929269300 -4.411543007700 -1.842841697600
H    6.511524940100 -3.566440471600 -1.034627671800
H    6.613241977100 -1.452001940300  0.233840208800
H    4.585660832000 -0.144490363700  0.633197212400
H   -4.095243176400  0.565544530200  1.373752894500
H   -4.576766859300 -0.246997567700 -0.767828236900
H   -5.001863416400 -2.145937073800 -2.259422119700
H   -4.371556091000 -4.434066725700 -1.564221159000
H   -3.323102687200 -4.790532687300  0.643196961100
H   -2.893779907200 -2.897781780600  2.127363916600
H   -2.639993384300 -1.122521364600  3.451986714400
H   -3.414399731100  0.438305392100  3.691683347300
H   -4.408749407200 -0.990395913300  3.371514824800
H   -1.382774059500  0.913187843600 -1.685205541800
H   -2.723509242600  1.241269677500 -3.717557331800
H   -4.885613634000  2.435385387700 -3.593628287800
H   -5.672362953400  3.306454525700 -1.421353201900
H   -4.336067596100  2.996039094300  0.592264636600
