70
-106.10271617
C   -3.056857836900  3.089685247300  0.414290976100
C   -1.983705298100  1.998647656200  0.378947271300
N   -2.395501856800  0.712595650200  0.947120480600
P   -1.289076153300 -0.517677011900  1.245254954600
O    0.031583262900  0.224364256300  1.967603997900
C    1.009659992600  0.969762012700  1.365774011600
C    1.786484934700  0.497632396000  0.324875054900
C    1.249264723100  2.244429665900  1.921444060000
C    2.206945572600  3.062530832700  1.402228270400
C    2.932635124200  2.674384203300  0.254891498300
C    2.709640571100  1.387077419900 -0.300198976200
C    3.380413246000  1.052726434300 -1.496130909000
C    4.260965103700  1.922813763200 -2.078032501200
C    4.518197705500  3.173192998400 -1.497637724500
C    3.858740686100  3.542624728500 -0.358686750200
O   -0.703515905000 -0.613207166100 -0.300188357100
C    0.414912667900 -1.398061034800 -0.461556950800
C    0.257332999900 -2.694067436300 -0.981520997900
C    1.346192742100 -3.494955440700 -1.163848318700
C    1.658385477500 -0.896738429100 -0.137529967500
C    2.791438307600 -1.756972654300 -0.228812942200
C    2.630353205400 -3.060716031600 -0.769693651600
C    3.754841746200 -3.905786714300 -0.877509833500
C    4.983461222900 -3.500874787600 -0.436720769700
C    5.133125405400 -2.235185746600  0.148649094500
C    4.066336997900 -1.385522862300  0.250686743200
C   -3.632193358700  0.565500637400  1.717423391200
C   -4.141666859300 -0.841614817100  1.493017444800
C   -4.830383303600 -1.115709705700  0.315869118800
C   -5.284681502700 -2.390780212200  0.033004730100
C   -5.065198918800 -3.418639472100  0.934320562200
C   -4.393357463800 -3.156270054900  2.115517534700
C   -3.934510392300 -1.879706572900  2.393118981000
C   -3.425990308500  0.915670712700  3.192249842900
C   -1.551929028000  1.831904245600 -1.062593989300
C   -2.332177260800  1.109107185100 -1.955317875200
C   -1.947527857300  0.974799429000 -3.276041720700
C   -0.780421580500  1.571656704600 -3.724498321900
C   -0.004863024500  2.306275523000 -2.844771102300
C   -0.391360363400  2.437931443600 -1.522306154100
H   -3.376919144800  3.311959865200  1.428935746100
H   -3.918511218500  2.810576145300 -0.187605061500
H   -2.628426130700  3.994103442500 -0.013815531000
H   -1.120066077800  2.372559858600  0.948983975600
H    0.657415667200  2.539588166200  2.776387326900
H    2.399802013900  4.029599325000  1.843811575500
H    3.176160193700  0.101071200500 -1.962706880600
H    4.759504307500  1.650789926700 -2.997140486800
H    5.224887726600  3.843981326900 -1.964121353700
H    4.027061467400  4.513669402700  0.085431495200
H   -0.741204372900 -3.020332715000 -1.231581886000
H    1.235243441300 -4.484024989700 -1.583496868800
H    3.619968736500 -4.888615639100 -1.306264224400
H    5.839111925400 -4.154800786400 -0.520281744100
H    6.099858596500 -1.934401345000  0.525509016800
H    4.191491048600 -0.419728397800  0.716056694800
H   -4.377028666100  1.246485620000  1.295831320700
H   -5.018068182300 -0.315989708800 -0.386976937000
H   -5.815124579000 -2.581098010300 -0.889082507900
H   -5.419527919300 -4.416239470300  0.719195915800
H   -4.222426969300 -3.950674337900  2.827605222500
H   -3.414470213400 -1.700400843800  3.320420704200
H   -4.323116083600  0.692766237400  3.765369952400
H   -2.586496063600  0.350320094000  3.592750155100
H   -3.197501989400  1.974025387500  3.298848446000
H   -3.229166645300  0.624950026000 -1.599933988400
H   -2.557397547100  0.399912551200 -3.958744060900
H   -0.475447654400  1.462095672300 -4.755420646500
H    0.908887453900  2.773330595700 -3.183590866400
H    0.223528824500  3.008199163300 -0.839528573000
