70
-106.10437530
C   -3.041336926000 -0.230655715800  3.148860165700
C   -3.557350811500 -0.095544796800  1.715669791800
N   -2.457352095600  0.028511840300  0.763385993200
P   -1.074185938100 -0.861455228800  1.139896480600
O    0.002304821600  0.264523576400  1.773455429200
C    0.872647119000  1.098947990700  1.136648754600
C    1.762459677000  0.669332567000  0.169837357100
C    0.897089750300  2.432501415000  1.592252443800
C    1.764701365100  3.335991589600  1.057991512100
C    2.589914842200  2.977156368000 -0.028213048900
C    2.570904975300  1.637567242100 -0.494949776300
C    3.331519569300  1.321190334600 -1.641050096400
C    4.107173314700  2.264674499300 -2.256384045800
C    4.167738223000  3.573828536400 -1.757696969200
C    3.417148041900  3.921536090500 -0.669589250400
O   -0.478026285200 -0.957603146000 -0.389604997600
C    0.784076121400 -1.519477663700 -0.455567578400
C    0.889160664500 -2.863462466600 -0.850860140600
C    2.113111818300 -3.459122118700 -0.937269151500
C    1.896827015900 -0.762539366700 -0.156977924800
C    3.171351659200 -1.404944873800 -0.135800928300
C    3.276865113700 -2.757747310300 -0.556674738000
C    4.540951875800 -3.384466386700 -0.558102831200
C    5.653919088700 -2.721926918000 -0.122969293800
C    5.541690985500 -1.407168054800  0.352226155000
C    4.333950206200 -0.765510132400  0.346742280600
C   -2.834487602400  0.556601089000 -0.550315666500
C   -1.787828996400  1.521370565400 -1.068727726500
C   -1.653909514700  2.744296434700 -0.419686310800
C   -0.762441943500  3.698573288900 -0.872432014500
C    0.020428974400  3.441943763000 -1.984363751100
C   -0.095571147000  2.224841037300 -2.631142430100
C   -0.996657119900  1.274737936300 -2.182560698400
C   -3.230891827000 -0.532352713500 -1.549078114900
C   -4.496561059800 -1.243208321200  1.408989264500
C   -4.000756040700 -2.523908962600  1.202528977100
C   -4.856150868000 -3.578789928600  0.942963545300
C   -6.224578938700 -3.366497393300  0.892135679100
C   -6.729019828800 -2.094375112700  1.099760957200
C   -5.869109732300 -1.039488055500  1.356219988800
H   -2.636760769200 -1.223914261800  3.324909791900
H   -3.858766319900 -0.063101048300  3.847652625500
H   -2.258517263100  0.501869531200  3.331752204200
H   -4.131561143400  0.841098754000  1.657065446200
H    0.222373935100  2.701879368500  2.390972034000
H    1.804995347400  4.347160742000  1.436123917300
H    3.282055392500  0.320713106000 -2.043930802100
H    4.675792783500  2.004641259600 -3.137633562800
H    4.795453650300  4.303837629400 -2.247907648000
H    3.432229914000  4.933922419400 -0.290786818200
H   -0.018997613500 -3.397534960600 -1.088495717700
H    2.202487316000 -4.484253846000 -1.265116143500
H    4.606859372900 -4.407950379000 -0.898780017700
H    6.618022149800 -3.208959679400 -0.124330653600
H    6.418294648900 -0.901681215600  0.730364968700
H    4.259572248600  0.240277389700  0.730541910200
H   -3.735436411100  1.163297871900 -0.370260399800
H   -2.263939010900  2.950256652000  0.449412374000
H   -0.682487229000  4.646336174300 -0.360102074200
H    0.717783010700  4.184187520000 -2.343571479800
H    0.516312100900  2.014140142200 -3.496666501500
H   -1.073707007800  0.336104224100 -2.707800656400
H   -4.082711497000 -1.087918144800 -1.163897281200
H   -3.511883338300 -0.075143306200 -2.495477969500
H   -2.414100018300 -1.227137363500 -1.713316948600
H   -2.931656021400 -2.687428372200  1.233001554300
H   -4.455677871500 -4.569163102500  0.781320008900
H   -6.894124442500 -4.189767478500  0.690163688700
H   -7.794769688700 -1.921047386800  1.060050657700
H   -6.269726034200 -0.047726945500  1.515922779900
