70
-106.10137851
C   -4.079436995400  1.602196249900  1.183002315800
C   -3.445848401700  0.356876874200  0.556563901900
N   -2.051796265800  0.567736359700  0.146276682900
P   -1.129291199300 -0.856374656400  0.269296286000
O   -0.025886112500 -0.502795162400  1.470814064600
C    0.948508774000  0.455638350700  1.355772325100
C    2.002564098100  0.310166893300  0.473758766400
C    0.873154761700  1.570944904800  2.211252422800
C    1.822068169900  2.549877587200  2.157423538700
C    2.859238354200  2.492277454200  1.202850499800
C    2.944910895000  1.368192746100  0.338681000300
C    3.943377117400  1.366183158300 -0.659918661000
C    4.835215550700  2.397384834400 -0.765298521800
C    4.777233027300  3.484614868800  0.119536041900
C    3.804109557900  3.532217084100  1.077813358200
O   -0.140654932800 -0.596397901900 -1.045277288400
C    1.022153322000 -1.340097597700 -1.065785909000
C    1.079856741500 -2.480526433300 -1.883246827200
C    2.227211615300 -3.216409337600 -1.947481574700
C    2.108617963700 -0.928830325600 -0.322175881500
C    3.281624210600 -1.734953525700 -0.312159342100
C    3.343299645300 -2.878545535700 -1.153016646300
C    4.513742132500 -3.666528296100 -1.157922256900
C    5.568330744000 -3.362535750900 -0.343777365900
C    5.488688184400 -2.262948409700  0.523868973300
C    4.375162194500 -1.469526674300  0.540551329500
C   -1.768358302000  1.627699649100 -0.825757821900
C   -2.830498158100  1.694586471400 -1.902126349400
C   -3.078826308700  0.540474750800 -2.641123169200
C   -4.038135257800  0.521135698000 -3.635154813600
C   -4.766164686000  1.666670797100 -3.915263725900
C   -4.520314235100  2.822417614600 -3.196375887300
C   -3.560711644400  2.837709614900 -2.196129450200
C   -1.453164072400  2.960557236900 -0.141173289000
C   -3.495238565900 -0.779485068600  1.548495780200
C   -4.215601704400 -1.933099218200  1.266057084500
C   -4.288638612500 -2.963713415500  2.187153185200
C   -3.643406102300 -2.851595374700  3.406626689000
C   -2.931564286700 -1.700622082200  3.702537548900
C   -2.863287635500 -0.670575777800  2.783305031800
H   -5.028126939000  1.320093237000  1.636055509000
H   -4.275117161700  2.355709833200  0.425696615700
H   -3.436969963300  2.017081598300  1.953933818700
H   -4.057021371000  0.080393737300 -0.316677454000
H    0.055211061300  1.615107036400  2.914758207500
H    1.773045205900  3.396465031700  2.826859946400
H    3.988902012000  0.540379651200 -1.353823290100
H    5.589985535700  2.380844759400 -1.538075221500
H    5.496360834600  4.285445628500  0.028186100300
H    3.734704083500  4.374563693000  1.751425323900
H    0.202664156500 -2.745289920900 -2.454521687400
H    2.285114567700 -4.083723530900 -2.588547942300
H    4.553261650400 -4.524753475800 -1.813508387800
H    6.460103853100 -3.971952889700 -0.351729723500
H    6.314737167300 -2.047367426400  1.185762739800
H    4.318850322700 -0.633232175300  1.220565753900
H   -0.842773378300  1.327490195800 -1.330723672500
H   -2.505156002900 -0.351135237400 -2.422395784400
H   -4.217003943400 -0.386219949200 -4.194476751600
H   -5.516992912000  1.657220011600 -4.691900094500
H   -5.079188995100  3.721847454600 -3.412385438900
H   -3.385623612300  3.754211466700 -1.654630975700
H   -1.062484394900  3.660079383900 -0.877610433300
H   -2.319046397000  3.399981782000  0.341474384100
H   -0.685916605600  2.794816100800  0.611672034500
H   -4.721726730500 -2.023942128800  0.314694896800
H   -4.850009895600 -3.856115327500  1.950929853500
H   -3.696350461900 -3.656815917100  4.124748403300
H   -2.429903849800 -1.605130494700  4.654691703000
H   -2.311764319400  0.225481165700  3.020918936400
