70
-106.09995502
C   -1.237044227300  2.097094997900  0.321147521100
C   -2.407203852400  1.146821315700  0.066907410300
N   -2.198729596800 -0.188935253000  0.631273043900
P   -0.798301429700 -1.131451775400  0.518387147100
O    0.214164128900 -0.493512459100  1.669828859800
C    1.169131511700  0.478894764100  1.569008790300
C    2.117468228700  0.517411224100  0.563792312700
C    1.183969256800  1.429236512600  2.610932200600
C    2.090413361200  2.445810371600  2.615295126500
C    2.989053337200  2.604519142400  1.538927079200
C    2.993446460900  1.642984172200  0.494647531400
C    3.838291515700  1.870377404300 -0.613678426500
C    4.669494064300  2.955787459600 -0.657375635800
C    4.702546309500  3.873129609100  0.402625286400
C    3.870970812400  3.702846876700  1.473806260000
O   -0.122474359900 -0.456272222600 -0.846643272200
C    1.119957210900 -0.986159754800 -1.136084559600
C    1.211600173300 -1.948051445600 -2.155721520400
C    2.417783546100 -2.504936962500 -2.463636501500
C    2.229135159700 -0.568866046900 -0.430049642300
C    3.475205799200 -1.221018481300 -0.669889787300
C    3.568964641500 -2.179210192000 -1.714378243800
C    4.807436053500 -2.806436522600 -1.965634814300
C    5.902673672700 -2.533009448200 -1.195434263700
C    5.796668814200 -1.631971531400 -0.125913122800
C    4.615120138900 -0.993054486700  0.131214186600
C   -3.392885971900 -1.059883798900  0.555721500000
C   -3.391561773700 -1.839779605500 -0.739034673900
C   -3.980957512400 -1.277913064100 -1.866567919700
C   -3.926030836400 -1.916762510300 -3.093175825500
C   -3.288958429000 -3.140245090000 -3.208760565900
C   -2.718407490600 -3.720255410000 -2.088324639900
C   -2.767647270000 -3.076034912100 -0.863997050200
C   -3.480943365000 -1.929064659700  1.806069982800
C   -3.628686658000  1.788878460700  0.689894492700
C   -4.580455018700  2.420808872700 -0.099016400700
C   -5.669602732900  3.050356123900  0.479921031100
C   -5.818728529200  3.053987795000  1.856069158400
C   -4.871275614300  2.429223502600  2.651172725000
C   -3.781832003700  1.805637841300  2.071679238200
H   -1.023205133600  2.155992645900  1.384750175700
H   -1.508673769200  3.090761926500 -0.032089046000
H   -0.343303467300  1.781042462800 -0.207100160700
H   -2.555943052500  1.068461863500 -1.022418710700
H    0.461968432300  1.311034608700  3.405312736200
H    2.111006266300  3.158897972300  3.426299992000
H    3.812310580600  1.182062911600 -1.444841704900
H    5.303692154100  3.113872019300 -1.517586667800
H    5.374098477500  4.717969692700  0.357667716400
H    3.865235864600  4.415702818000  2.286143130400
H    0.306388318200 -2.216396996700 -2.679428619600
H    2.500364075000 -3.226392421600 -3.263070441900
H    4.867375272900 -3.519685153900 -2.775307919400
H    6.847059965000 -3.018623306500 -1.392877853600
H    6.656751246600 -1.447075643400  0.500974719000
H    4.543125002000 -0.313037216600  0.966154620800
H   -4.267145893000 -0.399395502800  0.546289680000
H   -4.495530178700 -0.330730810900 -1.779938782300
H   -4.385115110800 -1.459896977300 -3.958426171400
H   -3.243895678500 -3.641819412200 -4.164680219200
H   -2.230043182300 -4.681100180900 -2.166410487600
H   -2.326371228700 -3.550500726400 -0.001699658400
H   -2.548012307000 -2.460734613600  1.975712722500
H   -3.672379530500 -1.299083705000  2.671223290500
H   -4.292409337700 -2.646041726000  1.704907582100
H   -4.466869429800  2.422407515600 -1.174827389400
H   -6.403443888400  3.537186099900 -0.146285265000
H   -6.669806275500  3.542338523600  2.307775372400
H   -4.981802570900  2.431112459000  3.726066651200
H   -3.043583321300  1.311968742900  2.686225119300
