70
-106.10149332
C   -4.088951852500  0.882131930400  2.174136217500
C   -4.010264344000 -0.132879313100  1.034511204800
N   -2.828231487000  0.122280979000  0.207313521100
P   -1.483439277500 -0.769990374800  0.648820742300
O   -0.462582338400  0.302601316900  1.447222385800
C    0.579822443900  1.060990035500  1.010174151300
C    1.541669432600  0.618615838000  0.120355834500
C    0.689328196200  2.333906952600  1.608402583200
C    1.707610979200  3.175972408600  1.282293174500
C    2.617895127800  2.829853156100  0.261724458500
C    2.518656592700  1.550873094500 -0.343575138300
C    3.372378166300  1.263772153600 -1.430383066000
C    4.306307734200  2.168730812000 -1.854681378300
C    4.441679844700  3.408033490800 -1.213335693900
C    3.607085022900  3.731526920600 -0.180256513000
O   -0.749583843700 -0.771999609200 -0.828394799100
C    0.473361518100 -1.413971510100 -0.828975476900
C    0.530244865400 -2.714389042900 -1.358826438300
C    1.711619119000 -3.394540728300 -1.385327053800
C    1.595044335300 -0.783208872800 -0.333139923300
C    2.809529449600 -1.530826687400 -0.243915123100
C    2.869491417600 -2.834832474700 -0.804048636700
C    4.078198430800 -3.559752189700 -0.741922941500
C    5.176017757500 -3.043068717600 -0.113445680700
C    5.098960891300 -1.784701065300  0.500478079200
C    3.947830544500 -1.048664853300  0.438104255000
C   -3.026030098600  1.011877355900 -0.938748613000
C   -1.875397318200  1.971867678400 -1.149812210200
C   -1.810377930800  3.109125473500 -0.351544940700
C   -0.831250378000  4.064936375600 -0.548001741500
C    0.109476775100  3.896951941800 -1.548933971600
C    0.064282090900  2.763524526000 -2.340250634500
C   -0.923080394900  1.812883232300 -2.148302862800
C   -3.390185478500  0.210207789800 -2.191540682600
C   -4.000269931400 -1.574317085000  1.493238029600
C   -4.195806974700 -2.564440601500  0.533443810900
C   -4.188038054300 -3.902451580100  0.877215640500
C   -3.990815961700 -4.276948665700  2.196522410200
C   -3.803691408300 -3.302077667700  3.159590126100
C   -3.808933781800 -1.960655084600  2.812661256500
H   -4.949240863600  0.681999520000  2.808352465400
H   -4.188303199300  1.885591981300  1.765040500500
H   -3.177036634600  0.843969128400  2.765742369500
H   -4.896671497500 -0.006024029400  0.396669216000
H   -0.050404553800  2.601583649300  2.347731516300
H    1.805864238800  4.133835215400  1.771842345500
H    3.268775741800  0.320094449900 -1.944613294900
H    4.943363453700  1.932351403500 -2.694823043700
H    5.193712372000  4.106041686300 -1.551538230300
H    3.679188137500  4.694558845600  0.305572004400
H   -0.381896208700 -3.144932892000 -1.744551140200
H    1.767136442400 -4.382691708300 -1.817571864400
H    4.111846161000 -4.542006831200 -1.191357934000
H    6.097617179100 -3.604573946500 -0.067984464500
H    5.956672636300 -1.398409823000  1.031598014700
H    3.898886752100 -0.089796746700  0.930595541000
H   -3.893163183300  1.638614613100 -0.684142956200
H   -2.544602350600  3.251933010700  0.429485360100
H   -0.807444744300  4.946285753800  0.076485801400
H    0.873528530800  4.642674007500 -1.711095053800
H    0.799018079400  2.620652634400 -3.119710452200
H   -0.943701396200  0.943826801500 -2.786121146700
H   -4.329196805700 -0.315547255300 -2.028542850600
H   -3.510363990300  0.878247791400 -3.041442110400
H   -2.620878443300 -0.523098423600 -2.412024471500
H   -4.352364787200 -2.276939425000 -0.496349793200
H   -4.340821912000 -4.654899631500  0.116915423900
H   -3.985119821300 -5.321762160600  2.470503803300
H   -3.650761305000 -3.584369293800  4.191289067400
H   -3.657838406900 -1.221458545500  3.582577784200
