70
-106.10375082
C   -4.372994611000 -2.797440042700  0.693649290500
C   -3.407411636800 -1.722957985300  1.190384792200
N   -2.372198715200 -1.380509017400  0.213693952000
P   -0.857612502700 -1.934269296200  0.689510201900
O   -0.138366168000 -0.664542497200  1.528262192300
C    0.498956151700  0.430765462600  1.016363557300
C    1.568970131200  0.328919547200  0.147424513400
C    0.075465654100  1.686347875300  1.492790220400
C    0.697882472200  2.828184077000  1.087916986200
C    1.719244936400  2.781526684700  0.116656184400
C    2.140355856300  1.521860042600 -0.382413456600
C    3.091337581700  1.502487602200 -1.425482097900
C    3.634759212900  2.661606855000 -1.906607748800
C    3.258727153500  3.901817731900 -1.370746400100
C    2.314109430300  3.957474304500 -0.384573557800
O   -0.095087908100 -1.748321219600 -0.754004693200
C    1.268920592900 -1.977245811500 -0.688241227400
C    1.755851105900 -3.220597080700 -1.123462465300
C    3.093578344800 -3.485010888000 -1.079999737600
C    2.112299290100 -0.992145833200 -0.220643930900
C    3.498185290800 -1.294025618100 -0.071511981800
C    3.990984268100 -2.544965613400 -0.530435558800
C    5.365929139500 -2.834298439900 -0.401059073700
C    6.217608823100 -1.945950014200  0.192718380900
C    5.722306345900 -0.735486584400  0.699648889900
C    4.398547982800 -0.417078168400  0.571658529200
C   -2.795075956800 -0.812313983600 -1.064831915600
C   -2.046378831200  0.468222900900 -1.378049490600
C   -1.049982093600  0.557695258600 -2.341048686800
C   -0.434729550700  1.768215458300 -2.609845023100
C   -0.810982681900  2.912009380500 -1.929452288600
C   -1.799392568000  2.834034794300 -0.963842136800
C   -2.407530453300  1.623094507200 -0.691464825400
C   -2.753634912300 -1.837964670500 -2.200401415100
C   -4.080287744500 -0.463533495100  1.692049127300
C   -5.321779282200 -0.029490709100  1.244815773300
C   -5.860295373500  1.161225862000  1.707013709300
C   -5.167434524800  1.934002461900  2.621613743600
C   -3.930992587100  1.506975721300  3.079367820500
C   -3.396386166100  0.318586285200  2.617907814700
H   -5.088480704400 -3.033359193600  1.478128218300
H   -3.811458530100 -3.696700124600  0.449437773300
H   -4.917015245100 -2.478987934300 -0.190728316600
H   -2.854190061900 -2.148190969900  2.041126596600
H   -0.742809679300  1.708707335200  2.195738938700
H    0.392017267900  3.786525966200  1.481359646300
H    3.378861586500  0.555266563700 -1.856469576800
H    4.356635318000  2.626402301700 -2.709828559600
H    3.707266586300  4.807097862500 -1.753465003200
H    1.993978965800  4.907850884700  0.018956802800
H    1.046190791600 -3.945665231900 -1.493387740300
H    3.477211327900 -4.430145379000 -1.434768299300
H    5.728852448900 -3.782695805700 -0.770783216000
H    7.268461521500 -2.175626229300  0.291022127700
H    6.394639296400 -0.053483571800  1.199437810000
H    4.026877896100  0.510638047200  0.978924722500
H   -3.842450720000 -0.517611120700 -0.918571326900
H   -0.743267985400 -0.317302218300 -2.891563321800
H    0.340836323700  1.818127898500 -3.360821201800
H   -0.335337251800  3.856279295100 -2.149757614700
H   -2.103977104300  3.719305384500 -0.424411526100
H   -3.180703696800  1.571099463300  0.061950492500
H   -1.751470947000 -2.231512836800 -2.330744766900
H   -3.416379456900 -2.669449721500 -1.975873905800
H   -3.079137497300 -1.370452749800 -3.127481706400
H   -5.886411409900 -0.616683806200  0.536821385000
H   -6.826528531900  1.484934817700  1.347441948300
H   -5.588524699300  2.862334381100  2.979189301600
H   -3.385721606500  2.100963533500  3.799102593700
H   -2.430928588500 -0.017578704700  2.970529361900
