70
-106.10044906
C   -1.473807987500  2.447525335200  0.166502181700
C   -2.701257476900  1.561612124300  0.404147223100
N   -2.561766941000  0.258670321700 -0.222426851900
P   -1.268107234300 -0.812624586300 -0.323795469600
O   -0.411235782400 -0.659635900000  1.089401018600
C    0.634489146900  0.167819430700  1.401748051200
C    1.756982621300  0.317803446500  0.608568481100
C    0.539526684700  0.824109480000  2.647661313500
C    1.523604794900  1.666732984700  3.068350597200
C    2.626944545400  1.950006695000  2.235360115900
C    2.736371235900  1.285874623700  0.985727560300
C    3.795919782800  1.654592780900  0.128243950800
C    4.723038792000  2.584555238900  0.510853513800
C    4.643060228000  3.196750544900  1.769919255500
C    3.609180321800  2.890141484600  2.609511654900
O   -0.267213231800  0.094257332300 -1.310969388300
C    0.934336088700 -0.530599950500 -1.559378143000
C    1.097972177900 -1.213696357100 -2.776477630800
C    2.269964915600 -1.856126874000 -3.047302593800
C    1.939887010000 -0.483740420100 -0.616015161500
C    3.129861547500 -1.235673772000 -0.842739021500
C    3.300451149400 -1.906086959200 -2.083480134200
C    4.486710310600 -2.633193506700 -2.316284502000
C    5.451813105900 -2.730775633600 -1.353555467200
C    5.258995654000 -2.118043119900 -0.106798268200
C    4.128309930200 -1.390460755100  0.143299268200
C   -3.764014770200 -0.315716716600 -0.834477724000
C   -3.339317629100 -1.070263335600 -2.076418700000
C   -2.827580479000 -0.329562697800 -3.139287184400
C   -2.408058789700 -0.947733189100 -4.301958902900
C   -2.499298305300 -2.324722703800 -4.426292193500
C   -3.015532160700 -3.069778843400 -3.380845279400
C   -3.435893447200 -2.449034562600 -2.216273533000
C   -4.577666927400 -1.145133986200  0.156032751900
C   -3.042887255600  1.523993374700  1.883534038100
C   -2.906389524100  0.383677498600  2.660396453100
C   -3.223289236700  0.403612869200  4.009101527000
C   -3.682006969400  1.566841120100  4.601055066100
C   -3.831693998000  2.709370542000  3.831767351000
C   -3.519343223300  2.685036733000  2.485130529600
H   -1.219523096500  2.448762665800 -0.890738905000
H   -0.617823225900  2.090293998400  0.730439260300
H   -1.686360502400  3.466690061700  0.481128470500
H   -3.547214684900  2.052689698100 -0.103086873100
H   -0.337706555300  0.636189163200  3.247615980300
H    1.451880430800  2.151884810100  4.030687157100
H    3.861168304300  1.203801329500 -0.850255670000
H    5.522518694000  2.856616964600 -0.162894601500
H    5.390785030300  3.919824285900  2.061215768900
H    3.517888442500  3.373130071400  3.572055110100
H    0.273550091900 -1.206615220500 -3.473279716500
H    2.411315350900 -2.363757277800 -3.990147276000
H    4.610064069700 -3.123463630300 -3.271483480200
H    6.356594659800 -3.290992781300 -1.538762775400
H    6.010339237000 -2.227811562900  0.661640841800
H    3.985359240300 -0.935321793100  1.111509721100
H   -4.392308440300  0.523609784600 -1.166785081400
H   -2.755762986600  0.744912728200 -3.046199881400
H   -2.012309665200 -0.354050680000 -5.114208223700
H   -2.170642109000 -2.812168952600 -5.332720456900
H   -3.092715289500 -4.143717775700 -3.470179972500
H   -3.835393518700 -3.051694043600 -1.416627832100
H   -4.915290995800 -0.512105078900  0.973633505900
H   -5.447914034700 -1.572347009600 -0.336729187600
H   -3.965100848000 -1.943136542100  0.569426893300
H   -2.548578191100 -0.529969883200  2.210127548300
H   -3.108563964900 -0.495948077900  4.597508830300
H   -3.926891530200  1.583254101500  5.653164917500
H   -4.197612695600  3.621154370800  4.281851878300
H   -3.652433879200  3.578665328100  1.891162808900
