70
-106.10204132
C   -3.433190413200 -1.774191078500  1.688167955000
C   -3.056714272100 -0.630343307000  0.744995978400
N   -2.046888189000  0.271570524500  1.309607407200
P   -0.752470269700 -0.487831448800  2.147426156600
O    0.432310947000  0.660190688400  2.066787696500
C    0.979360893300  1.113591426800  0.883944675900
C    1.684038909600  0.277292138000  0.041533395100
C    0.869041744300  2.488304543900  0.608840306900
C    1.380376824000  3.007144743200 -0.545302024700
C    1.979582743200  2.164414218000 -1.504100576500
C    2.132801619700  0.783284302000 -1.211579342500
C    2.685257481700 -0.054220588500 -2.204971152700
C    3.097189684500  0.455441852900 -3.405095515400
C    2.983969693700  1.827641577300 -3.674935843400
C    2.431009436200  2.661950766700 -2.744649577400
O   -0.350354558300 -1.441640290700  0.858807670800
C    0.931393321100 -1.937042549100  0.829199361700
C    1.146978591000 -3.286932148900  1.152939461200
C    2.407535961200 -3.807770325100  1.109013475300
C    1.969871165900 -1.115071408500  0.444342348500
C    3.300451330900 -1.619686033100  0.480427230800
C    3.513183614300 -2.988334988500  0.798206519300
C    4.830115815200 -3.494540186800  0.816772436200
C    5.898970400400 -2.680900195000  0.566329110700
C    5.694016272100 -1.318505668900  0.301442691800
C    4.429326413300 -0.800479563100  0.259442422800
C   -2.535007865300  1.489501282800  1.964338282200
C   -3.288789804700  2.334280018200  0.956156521600
C   -4.671684720000  2.470974122100  0.960551666300
C   -5.310273613700  3.236789950300 -0.001616273400
C   -4.579715201900  3.877279077200 -0.986256622700
C   -3.200913611600  3.749101395000 -1.001513975100
C   -2.565955633000  2.985673630700 -0.039042873800
C   -3.309218010500  1.251815797100  3.263224191100
C   -2.577205917900 -1.111283020000 -0.613894146700
C   -2.081291759900 -0.169555068600 -1.509964527900
C   -1.612659921400 -0.542774153300 -2.754913445400
C   -1.636109326200 -1.874298152500 -3.134919755700
C   -2.144676288700 -2.817729496400 -2.261111467200
C   -2.614715975800 -2.440560324800 -1.013552229900
H   -3.699781177000 -1.385697122800  2.666938338000
H   -2.589046396400 -2.449433045400  1.810091369100
H   -4.283603785400 -2.326375905700  1.293907489200
H   -3.950757523600 -0.016866386400  0.566611968700
H    0.394915058200  3.118678795900  1.347358771300
H    1.308054366900  4.066111437600 -0.747194930400
H    2.761540771200 -1.113815464700 -2.013398035300
H    3.509944042400 -0.201359282600 -4.156982418600
H    3.324413516100  2.214418719700 -4.624407002900
H    2.319373081600  3.717662029200 -2.947802927700
H    0.294258696100 -3.890195198500  1.425939218500
H    2.577437947100 -4.849379256000  1.339008365900
H    4.975802676600 -4.540664656900  1.045575654900
H    6.904386680600 -3.075262749100  0.584887444000
H    6.546019665000 -0.675705695100  0.134341229600
H    4.284757364100  0.251807760800  0.067733901300
H   -1.624780902700  2.040006525700  2.237202490800
H   -5.269661668500  1.986990147300  1.717145861100
H   -6.386622341300  3.330699072200  0.020798345600
H   -5.080224239100  4.473445184100 -1.735224530700
H   -2.617110116400  4.244277119700 -1.764200806800
H   -1.490271808300  2.888416395900 -0.056259739400
H   -3.571869185800  2.208592211700  3.710300237600
H   -4.219426935200  0.682799234600  3.097634984400
H   -2.675878633500  0.702880514800  3.958889647100
H   -2.054970296000  0.868547836600 -1.216416185000
H   -1.222464876400  0.207488229500 -3.428573539000
H   -1.262641771200 -2.172364371000 -4.104217720300
H   -2.173601324000 -3.859888657700 -2.547838983500
H   -2.999671692900 -3.204491664300 -0.356897689300
