70
-106.10377805
C   -4.359959903200 -2.669650969600  1.031340634100
C   -3.375338052800 -1.557407516700  1.389685264200
N   -2.361068156600 -1.313512630600  0.362529278500
P   -0.866262280900 -1.959813503600  0.804232615600
O   -0.084836000800 -0.732912917200  1.643434221500
C    0.509479973600  0.381375941800  1.114732936700
C    1.531050490300  0.303998941500  0.187163536000
C    0.099171654200  1.625317058000  1.630250445600
C    0.681049288000  2.780520839000  1.202558278900
C    1.643289565100  2.758603641100  0.172077990700
C    2.053676918200  1.509846706200 -0.362363998600
C    2.945162894000  1.513515526600 -1.456724754600
C    3.442773205400  2.684760532400 -1.957111621700
C    3.078973787200  3.914563956700 -1.389532410500
C    2.191092275900  3.947849543700 -0.351145845400
O   -0.139359354200 -1.786014290600 -0.657667176800
C    1.226365020700 -2.001575661300 -0.647617218600
C    1.709671805300 -3.236350599400 -1.110171319700
C    3.051853855200 -3.480471214800 -1.133266986800
C    2.076946283300 -1.006069866700 -0.216796473900
C    3.472855183000 -1.285899027800 -0.139138310000
C    3.961218726500 -2.527406170300 -0.627962556600
C    5.345873775300 -2.793624105300 -0.573869591300
C    6.213398173900 -1.891984471400 -0.024874584600
C    5.725867495700 -0.691295247600  0.512125928800
C    4.391916533700 -0.395388143700  0.457482480100
C   -2.798516721700 -0.880774455100 -0.962193864200
C   -1.987109216600  0.312390686300 -1.428952709500
C   -1.108921290000  0.273345879800 -2.503715019700
C   -0.419455828000  1.408822501900 -2.893075702800
C   -0.605629147000  2.605566115500 -2.225270671400
C   -1.479520841000  2.656252848300 -1.153322574900
C   -2.158333749000  1.519015916600 -0.758342222300
C   -2.848027369300 -2.027326104100 -1.974672832100
C   -4.036335515400 -0.253290214800  1.779472561300
C   -5.239306647800  0.182883562400  1.237547826400
C   -5.765398451800  1.415810387500  1.589013336800
C   -5.099887012300  2.229939245500  2.488038962500
C   -3.906014120500  1.800008120400  3.044496845300
C   -3.383810927500  0.569032977600  2.692518644000
H   -5.047714714900 -2.824721953300  1.859749087400
H   -3.809902805000 -3.591747496100  0.854700306700
H   -4.935897842500 -2.433032294300  0.141719572100
H   -2.800499029900 -1.899635778200  2.263645372900
H   -0.673746021200  1.630433518900  2.382557641600
H    0.387334439700  3.729867208900  1.626279567200
H    3.221962640600  0.574107815100 -1.911056492000
H    4.118687159300  2.667680468800 -2.799903917400
H    3.491493226100  4.829853396400 -1.788745812200
H    1.880461170000  4.889987871400  0.078280159200
H    0.994152333800 -3.971174226900 -1.448177895500
H    3.431712996300 -4.418757782600 -1.509684612100
H    5.704205992200 -3.734739730800 -0.966019040500
H    7.271871550900 -2.103514167500  0.014861683100
H    6.412862791500  0.001086723500  0.976449391400
H    4.027312174400  0.525044984000  0.887015881800
H   -3.822909290100 -0.511014686300 -0.823662300000
H   -0.948122227200 -0.645393164400 -3.044900970500
H    0.265178368500  1.357883369400 -3.727853003100
H   -0.070887693900  3.491023890400 -2.535823550800
H   -1.636783216400  3.584996406800 -0.624425586800
H   -2.836699976400  1.564579767800  0.082023557100
H   -3.526209535300 -2.802619717100 -1.629044122700
H   -3.203508369800 -1.654812455500 -2.933216386200
H   -1.866239128700 -2.470525792600 -2.103414837200
H   -5.785240392700 -0.436307550800  0.542036299900
H   -6.700636794600  1.739911844100  1.155523844100
H   -5.510610181100  3.191791166500  2.758286055000
H   -3.383989525100  2.424874385900  3.755200270200
H   -2.453851187300  0.228264727100  3.126531103300
