70
-106.10080047
C   -3.346713013800 -1.812524690300  2.269162431700
C   -3.552188489800 -0.898616501600  1.065540323200
N   -2.316140160600 -0.284688351200  0.589594136100
P   -0.864616917400 -0.810719405100  1.242893507100
O    0.042882411300  0.562143676500  1.443570039800
C    0.916133757600  1.181132072400  0.590965608200
C    1.920014737000  0.520337210500 -0.093150368700
C    0.788756672400  2.583498944200  0.502959195900
C    1.601713575500  3.307406000700 -0.315457617500
C    2.549432245500  2.660693777800 -1.137194013700
C    2.700673978400  1.252928802300 -1.038250832700
C    3.590804867700  0.616321169900 -1.930558693600
C    4.328114512200  1.338625275700 -2.828052541300
C    4.216508680800  2.735264862300 -2.884081163600
C    3.336718279300  3.379553952000 -2.060162401800
O   -0.141535127700 -1.383087328500 -0.164482845400
C    1.145940029600 -1.823861268100  0.028815490400
C    1.375105279400 -3.207557965100  0.128344487700
C    2.636957316300 -3.680725083200  0.336054621300
C    2.179960879500 -0.914989978900  0.122841904200
C    3.484857066800 -1.389758092000  0.446095423300
C    3.714048715000 -2.789075872800  0.529079897500
C    5.009765715400 -3.259178512100  0.829046930800
C    6.033263701000 -2.388071657900  1.076586068500
C    5.795325948100 -1.006070236800  1.052241173900
C    4.554790660100 -0.518797734500  0.745830913700
C   -2.551920975600  0.802541721600 -0.355052525600
C   -2.559010631200  2.164475870900  0.319507259200
C   -2.679969942700  3.320457719300 -0.445729461600
C   -2.711203293000  4.567595907400  0.151828235600
C   -2.635514812900  4.684633336000  1.529767372100
C   -2.534905417300  3.541055633300  2.302309052200
C   -2.500209438600  2.293974404800  1.701049087400
C   -1.609782373000  0.746637985900 -1.559915828700
C   -4.208894128700 -1.694808273700 -0.044760525100
C   -5.575191361300 -1.603849639700 -0.273636966900
C   -6.171734821100 -2.355344522400 -1.271972666000
C   -5.406014588100 -3.202984699600 -2.054279582700
C   -4.041536946600 -3.296739809300 -1.833352357300
C   -3.448689347700 -2.548828417000 -0.832412436700
H   -2.707545930700 -2.652193253900  2.005504733200
H   -4.312740478700 -2.197614517400  2.590068979500
H   -2.891492651900 -1.267864543400  3.093363689800
H   -4.236807056300 -0.091284305100  1.368444038900
H    0.028844759800  3.056001386800  1.104847373700
H    1.507237219600  4.382166098700 -0.365189038600
H    3.675213014900 -0.459552269200 -1.911285858800
H    4.999373476600  0.831072381100 -3.505522914500
H    4.815412545700  3.291478806100 -3.590312818300
H    3.219088855100  4.452808047600 -2.109367753800
H    0.530162677000 -3.872672904000  0.029152692400
H    2.822037649800 -4.743572760600  0.389035898600
H    5.172447912000 -4.326779608400  0.871921468500
H    7.022282651200 -2.755469234800  1.308192827200
H    6.600551858200 -0.323766661000  1.282837575500
H    4.381241668300  0.546551131000  0.744237379300
H   -3.566483993800  0.637241400800 -0.750804100100
H   -2.752997088200  3.251583612900 -1.520503536000
H   -2.797599770600  5.452539279800 -0.462335659200
H   -2.658201076000  5.658481587100  1.996923789600
H   -2.479981137200  3.615934074900  3.379171617100
H   -2.406710051400  1.413543347000  2.320073187400
H   -0.607638535600  1.073564283600 -1.298106256800
H   -1.562811084800 -0.273870270200 -1.931252197200
H   -1.981281668900  1.383401510400 -2.358564295500
H   -6.176026719900 -0.940016543700  0.333193248600
H   -7.236002551000 -2.275889641400 -1.441131272300
H   -5.870531600500 -3.787094882300 -2.835461841200
H   -3.438869931800 -3.955159485800 -2.442697067800
H   -2.383736171500 -2.610817477900 -0.662443628300
