70
-106.10000635
C   -3.681138107900 -0.186454157100  2.382398527600
C   -3.487468898600 -0.268275783600  0.871742645200
N   -2.235519034300  0.418900020400  0.483629731100
P   -0.904716048400 -0.452938396100  1.052399839800
O    0.151150230500  0.717869778200  1.569982500500
C    1.212891330700  1.302761319300  0.938970915200
C    2.154321550300  0.604305834300  0.205757129900
C    1.343727776200  2.692870841000  1.140260042800
C    2.359880771500  3.390461974400  0.561151284700
C    3.263619586000  2.743586720600 -0.308346900600
C    3.151291647500  1.342067805900 -0.502876655400
C    4.008433856700  0.732376614900 -1.444974268600
C    4.957776768000  1.458357116200 -2.110318749400
C    5.103099776600  2.832452370700 -1.871951333000
C    4.264627513600  3.461303932200 -0.994759406200
O   -0.185420017700 -0.848244711000 -0.400254467900
C    0.993348357100 -1.544482127400 -0.219115945400
C    0.976595116100 -2.938061856200 -0.394776890500
C    2.114488595600 -3.664435656000 -0.201912693000
C    2.143332546600 -0.870409676000  0.135362203900
C    3.310521905000 -1.630502213600  0.444923542000
C    3.296140280900 -3.037447943100  0.249373089100
C    4.457361425700 -3.785349914100  0.536519555600
C    5.577316211800 -3.180979229400  1.034545238900
C    5.573310361100 -1.800969743000  1.284368701000
C    4.470063868500 -1.045160032600  0.997942899600
C   -2.343120792700  1.155604250200 -0.777268965600
C   -3.496293790500  2.133974329200 -0.700673323900
C   -3.621088894100  2.980093881800  0.395239887600
C   -4.647035280200  3.904974421500  0.456503900400
C   -5.558014262900  4.002281838200 -0.583077349900
C   -5.436658615100  3.169294913300 -1.681959352200
C   -4.411302959000  2.240295680600 -1.739387338700
C   -1.093248728900  1.967729594900 -1.112912553400
C   -3.497338053500 -1.677006543300  0.323715889700
C   -2.950534275000 -2.749723599000  1.019289140400
C   -2.896632693000 -4.008384918900  0.445583946000
C   -3.386412199900 -4.217271308600 -0.832672551900
C   -3.949107898500 -3.160795061800 -1.527789414100
C   -4.008628575800 -1.904625300200 -0.949443568600
H   -4.538065065800 -0.785936170800  2.680865412400
H   -3.856806845400  0.847601147400  2.668526014900
H   -2.795455747200 -0.536325919000  2.906545420900
H   -4.309614633800  0.281389548200  0.399514063500
H    0.618972541100  3.175304838500  1.779205241400
H    2.466893975900  4.450847695000  0.736423866500
H    3.897968963800 -0.321207994800 -1.652313855300
H    5.599503017700  0.972707573900 -2.831086047200
H    5.866722730700  3.388181204700 -2.396164928000
H    4.345733499900  4.524875004500 -0.820597234100
H    0.044736748900 -3.398026491500 -0.687797713500
H    2.116109090300 -4.732968505800 -0.358925054400
H    4.436771856100 -4.852269296700  0.365770333300
H    6.461707072300 -3.760856154600  1.254256007800
H    6.449410041600 -1.335183389100  1.711455971800
H    4.475014694200  0.013310999600  1.208595948900
H   -2.522730894800  0.447534775800 -1.602762766200
H   -2.911748760800  2.895342018200  1.205284321900
H   -4.736234060700  4.554249850100  1.315674510400
H   -6.359447447700  4.725078395900 -0.536739221400
H   -6.142605598600  3.240620300700 -2.496941690500
H   -4.319408860900  1.592377356600 -2.600797546900
H   -0.238882162700  1.324530447400 -1.299007971100
H   -1.284587411800  2.550442344500 -2.012784605700
H   -0.858593246800  2.652407079900 -0.302774521800
H   -2.573155557900 -2.611505955200  2.020253253500
H   -2.467493401200 -4.830023166400  1.001155611300
H   -3.336611915600 -5.198808189100 -1.281628400800
H   -4.345944108200 -3.314725404200 -2.521254328000
H   -4.464878798600 -1.088114244000 -1.492313615300
