70
-106.10637942
C   -1.767914967400  3.022358819800  0.760580801300
C   -1.760682717500  1.686371549100  0.016927980600
N   -1.943172629900  0.563676551900  0.933894262300
P   -0.832710983200 -0.653672534200  1.219613378400
O    0.463400244300  0.088054933900  1.986249027800
C    1.360026764500  0.951167556900  1.416594617200
C    2.181231831100  0.578465048300  0.368150816000
C    1.470623130500  2.229834633000  1.997836855200
C    2.339534474200  3.150097515200  1.491424397200
C    3.103854451500  2.856561893200  0.342226177300
C    3.018640375800  1.561296084300 -0.233792857600
C    3.738884729300  1.309946960900 -1.422098577000
C    4.535366761700  2.271635959600 -1.979764693400
C    4.655028341400  3.534670747200 -1.381389494100
C    3.946611274600  3.821050611900 -0.248241079200
O   -0.198975788000 -0.701671772800 -0.315523829300
C    0.975948486600 -1.412571264400 -0.446841029500
C    0.918008506000 -2.720874566900 -0.954693721800
C    2.066116778600 -3.438791547700 -1.120375819600
C    2.173836022700 -0.817970316500 -0.110280066900
C    3.369549628200 -1.588340610100 -0.191350468200
C    3.311019385200 -2.903631838300 -0.725412442000
C    4.498259868500 -3.659223774000 -0.825995731500
C    5.690436418700 -3.156590112500 -0.386033773200
C    5.740162849900 -1.879293986600  0.191513943200
C    4.610292755100 -1.114901446200  0.287590290500
C   -3.240341720700  0.406829119400  1.595988186300
C   -3.843941406000 -0.930528040800  1.227973317100
C   -4.695068551800 -1.012737215900  0.131748014100
C   -5.218812790900 -2.227574105900 -0.273380541200
C   -4.904726810800 -3.384193363400  0.419428708000
C   -4.071218602000 -3.312089427800  1.522300916400
C   -3.545719844600 -2.095978479500  1.924378218400
C   -3.099280967300  0.607075498800  3.105458394300
C   -2.766579531600  1.605588317100 -1.114397999000
C   -3.865979941400  2.449015477000 -1.217126985600
C   -4.775954735300  2.300164945800 -2.251981036300
C   -4.602525784400  1.306613125000 -3.198903340900
C   -3.507749345800  0.462353166200 -3.107855067900
C   -2.601191777600  0.612961166400 -2.075407614200
H   -0.951825087600  3.038867846700  1.477862815700
H   -2.699658586300  3.178361902700  1.297908415100
H   -1.623380473700  3.836418439300  0.053726932900
H   -0.764175981500  1.556164114500 -0.421670073500
H    0.863945985900  2.440888189200  2.866473213300
H    2.435355958300  4.123255157500  1.950530052200
H    3.643872985100  0.345970115100 -1.898880187100
H    5.075216069600  2.062299425100 -2.891845032100
H    5.297485643200  4.278672424200 -1.829185719800
H    4.011961386700  4.797418468400  0.210685128200
H   -0.050511333600 -3.125377026100 -1.209289963900
H    2.032765487700 -4.437612252700 -1.529974688100
H    4.441523941500 -4.651973516800 -1.249271304800
H    6.594682781100 -3.742128812400 -0.464728632200
H    6.680170322900 -1.501589852200  0.566593993000
H    4.658449028800 -0.139000378600  0.746046411900
H   -3.899539120100  1.184613606500  1.196243539000
H   -4.947749259100 -0.115813790400 -0.414940457400
H   -5.875124460700 -2.268191637500 -1.130871082000
H   -5.311426925100 -4.334612466200  0.105435986700
H   -3.827878385200 -4.207730199400  2.075623810500
H   -2.906657159600 -2.061582057900  2.792396375800
H   -2.840012127600  1.640722956300  3.322198652500
H   -4.032598766200  0.363664742300  3.608181930000
H   -2.304423313100 -0.026674411900  3.492716525100
H   -4.025851752600  3.235103813800 -0.495168959000
H   -5.626272604300  2.964545677100 -2.314156727200
H   -5.314805991000  1.190968933800 -4.003016993300
H   -3.361022657900 -0.316243410700 -3.842711673100
H   -1.752830787500 -0.050575310400 -2.001294568300
