43
SIG-NIHDA-498 | MMFF94/ETKDGv3 ensemble | attach_idx=3 axis_idx=4 relative_energy_kcal_mol=0.00000019 boltzmann_weight=0.1111110852
C    4.1371824413  1.2151505079 -1.1942715017
N    3.1783181633  0.8041986003 -0.1642940046
C    3.8718425954  0.7016669692  1.1219781458
P    2.2258118142 -0.5493856668 -0.6056983554
O    1.0971027166  0.1488412937 -1.5526214833
C    0.2974026463  1.1842646082 -1.1491906325
C    0.6574462320  2.4820302398 -1.5392637702
C   -0.0746254374  3.5955931157 -1.1076437097
C   -1.1748937474  3.4278646377 -0.2723919963
C   -1.5390444221  2.1377440397  0.0843874624
C   -0.8503003619  1.0026885726 -0.3924666897
C   -1.5683615485 -0.2427012071  0.0590020274
C   -2.2743928243  0.3090991419  1.3294796812
C   -2.6662736575  1.7522774252  0.9917381818
C   -2.6148262813 -0.7508035784 -0.9686966681
C   -3.0068624141 -2.1628253206 -0.4973365937
C   -1.7173250153 -2.6224672580  0.1113570054
C   -1.3460561757 -3.9235152270  0.4154942682
C   -0.0675619310 -4.1463339208  0.9288363396
C    0.8287147691 -3.0800267389  1.0871129703
C    0.4401020293 -1.7768748261  0.7572084402
C   -0.8572535360 -1.5359471919  0.3442364590
O    1.3612720614 -0.7667473974  0.7589125817
H    3.6513841093  1.3805952025 -2.1634278786
H    4.6037855017  2.1702169545 -0.9248659478
H    4.9351595469  0.4755977040 -1.3367703375
H    3.1713287567  0.5503079079  1.9515736629
H    4.6054479341 -0.1138097782  1.1355184795
H    4.4003104765  1.6351766103  1.3505038657
H    1.5333338012  2.6304861608 -2.1638043945
H    0.2346990710  4.5930645762 -1.4075660607
H   -1.7277455395  4.2875731047  0.0923185802
H   -3.1429742251 -0.2765264389  1.6495489081
H   -1.5713627635  0.3164834724  2.1762684481
H   -3.6207261717  1.8010150393  0.4585589900
H   -2.7078302217  2.3718813419  1.8920004849
H   -2.1569663969 -0.8182547745 -1.9669767071
H   -3.4927489379 -0.1034659855 -1.0685057376
H   -3.3151029547 -2.7877413039 -1.3402777454
H   -3.7986564519 -2.1343851339  0.2574605145
H   -2.0266259518 -4.7529541752  0.2505976048
H    0.2485408523 -5.1567680901  1.1754486452
H    1.8393314488 -3.2722832132  1.4365284676
