43
SIG-NIHDA-498 | MMFF94/ETKDGv3 ensemble | attach_idx=3 axis_idx=4 relative_energy_kcal_mol=0.00000008 boltzmann_weight=0.1111111058
C    3.4114584838 -2.0050232300 -1.0410351092
N    3.1729132747 -0.8097337680 -0.2284022870
C    4.4529185807 -0.3224487621  0.2943893284
P    1.9481255883 -0.9511100117  0.9608032592
O    1.4473715297  0.5951149655  1.0896729541
C    1.0027911962  1.3434616259  0.0329304055
C    1.9003236583  2.2453066248 -0.5562138814
C    1.5370269374  2.9944042063 -1.6827626563
C    0.2712976991  2.8469710165 -2.2418325374
C   -0.6182486897  1.9730315689 -1.6341776177
C   -0.2893735996  1.2586918820 -0.4629957407
C   -1.5037442397  0.5102826648  0.0224115052
C   -2.2719112373  0.3598982247 -1.3208587457
C   -2.0064867058  1.6550911679 -2.0970259378
C   -2.3484582804  1.3152810257  1.0460612660
C   -3.3377805758  0.3042084481  1.6532264228
C   -2.5164844909 -0.9482576199  1.6146581005
C   -2.7396149409 -2.1237006283  2.3158117507
C   -1.8165921375 -3.1619114509  2.1821536912
C   -0.6709617567 -2.9947375294  1.3916091645
C   -0.4556723611 -1.7937740745  0.7064789912
C   -1.4157073680 -0.7998949382  0.7539839348
O    0.7334885410 -1.5729313527  0.0692688523
H    4.1617150909 -1.8016974546 -1.8148031921
H    3.7659652093 -2.8522660676 -0.4411504833
H    2.5099184260 -2.3170462326 -1.5811461943
H    5.1449873111 -0.1041907056 -0.5277148055
H    4.3380922094  0.6170558809  0.8482675395
H    4.9339798943 -1.0512310030  0.9588227874
H    2.9025958334  2.3462428527 -0.1505924984
H    2.2560007288  3.6730772206 -2.1333848941
H   -0.0065696086  3.3996786314 -3.1334952726
H   -1.8676339141 -0.4901062064 -1.8913048015
H   -3.3455257403  0.1761421528 -1.2050106138
H   -2.6983914419  2.4521951003 -1.8080198821
H   -2.0582049766  1.4870289224 -3.1764624654
H   -2.8698371698  2.1766453121  0.6148201695
H   -1.6981306750  1.7061979610  1.8429346890
H   -4.2353975874  0.1934111556  1.0372129896
H   -3.6154084514  0.5884725774  2.6721473300
H   -3.6047846626 -2.2344668528  2.9619879041
H   -1.9678797237 -4.0938380875  2.7209856419
H    0.0678301424 -3.7895252124  1.3377509385
