43
SIG-NIHDA-498 | MMFF94/ETKDGv3 ensemble | attach_idx=3 axis_idx=4 relative_energy_kcal_mol=0.00000007 boltzmann_weight=0.1111111077
C    4.0006695416 -0.7069904393 -0.4498398621
N    3.2417097702  0.0466219384  0.5511785733
C    4.1704604100  0.5933139857  1.5450178501
P    1.8978624894 -0.7674296553  1.2335982748
O    0.9317859027  0.4851746672  1.6283673286
C    0.5119886878  1.4352690293  0.7364767441
C    1.1925694821  2.6609552903  0.7144703324
C    0.8626530324  3.6540680057 -0.2167286643
C   -0.1494538663  3.4327697122 -1.1457240038
C   -0.8350555655  2.2278384985 -1.0967429899
C   -0.5571472135  1.2432372467 -0.1254341809
C   -1.5570674505  0.1229809472 -0.2504060769
C   -1.9413680396  0.2819936772 -1.7484382416
C   -1.9288459998  1.7905587757 -2.0213650052
C   -2.8034421158  0.3130247364  0.6550534463
C   -3.5395328870 -1.0388195815  0.6360146073
C   -2.3849744458 -1.9839512185  0.5003447729
C   -2.3792055005 -3.3479598169  0.7503726561
C   -1.1759032424 -4.0422625291  0.6172348787
C    0.0026463188 -3.3607754276  0.2826133132
C   -0.0215962529 -1.9808273230  0.0519222612
C   -1.2275344707 -1.3052047221  0.0830707593
O    1.1486386882 -1.2940475182 -0.1147980805
H    3.3731275619 -1.0038771339 -1.2983109033
H    4.7976188024 -0.0862734404 -0.8770707067
H    4.4632745195 -1.6085046965 -0.0295668430
H    3.6592146277  1.2312780106  2.2759540292
H    4.7006572088 -0.1945641117  2.0947020473
H    4.9189763224  1.2315175474  1.0603776021
H    2.0066603225  2.8346784020  1.4118564504
H    1.4167526151  4.5886555426 -0.2269290438
H   -0.3892696866  4.1843490422 -1.8909592610
H   -1.1853896309 -0.2043257934 -2.3835368039
H   -2.9059951671 -0.1642166730 -2.0134411808
H   -1.6982082979  2.0010037960 -3.0695175054
H   -2.8763626592  2.2625733338 -1.7437888358
H   -2.4873165482  0.5367941580  1.6849768057
H   -3.4608104260  1.1317141582  0.3430158944
H   -4.0988280905 -1.1955329962  1.5626819172
H   -4.2091625456 -1.1251715084 -0.2251510489
H   -3.2843303469 -3.8655912586  1.0522657350
H   -1.1439604952 -5.1120706214  0.8075143689
H    0.9434946409 -3.9019740363  0.2345728905
