43
SIG-NIHDA-498 | MMFF94/ETKDGv3 ensemble | attach_idx=3 axis_idx=4 relative_energy_kcal_mol=0.00000010 boltzmann_weight=0.1111111036
C    4.1311477446  0.8715970680 -1.4809767261
N    3.2330447499  0.3538630407 -0.4443851514
C    4.0337655945 -0.1719597193  0.6639229541
P    2.0145220470 -0.6908369521 -1.0427961058
O    1.2793989169 -1.1224970985  0.3464829048
C    0.2000272956 -1.9554454517  0.2461521354
C    0.3865324868 -3.3415096364  0.2002803001
C   -0.6954815246 -4.1918054736 -0.0673294908
C   -1.9629704326 -3.6639512599 -0.3174585180
C   -2.1300678229 -2.2889666039 -0.2499073958
C   -1.0717597523 -1.4331701061  0.0994952845
C   -1.5706182332 -0.0215987384  0.2341258109
C   -2.7960971704 -0.0947607214 -0.7157531119
C   -3.3770275631 -1.5087566373 -0.5345989213
C   -2.0253444999  0.2834142169  1.6892095449
C   -2.1912152943  1.8058367996  1.7607858127
C   -1.1196095194  2.2437921776  0.8108524377
C   -0.5749342884  3.5160061240  0.7154188791
C    0.4397994111  3.7312467678 -0.2121328124
C    0.9125794291  2.6713443361 -0.9965637057
C    0.3742136291  1.3827366906 -0.8715425450
C   -0.6979457806  1.1811124046 -0.0155967977
O    0.9300156479  0.3806277834 -1.6207000295
H    4.7658518671  0.0860168016 -1.9099644584
H    3.5793309642  1.3469135371 -2.3008633368
H    4.7853973786  1.6489298401 -1.0684588857
H    3.4122898715 -0.4276228754  1.5300980238
H    4.6092939558 -1.0605820896  0.3767275409
H    4.7401229530  0.5864018737  1.0229367584
H    1.3794505663 -3.7598016752  0.3400827007
H   -0.5374129580 -5.2663096056 -0.1139391586
H   -2.7929394983 -4.3170924863 -0.5682387011
H   -3.5517464403  0.6759001686 -0.5291232272
H   -2.4690578166  0.0295906995 -1.7589846972
H   -4.0642023167 -1.5602746496  0.3154622239
H   -3.8807398165 -1.8468998922 -1.4445561607
H   -1.2438357341 -0.0266508172  2.3994641801
H   -2.9433272859 -0.2332920335  1.9894755767
H   -2.0243552048  2.1745770104  2.7768036518
H   -3.1745532233  2.1257109879  1.4025174331
H   -0.9244325021  4.3244800273  1.3494361123
H    0.8854686068  4.7170187912 -0.3131946780
H    1.7274215625  2.8466673768 -1.6926656511
