55
-76.67057155
C    2.862111180200  2.324432687000  0.590450312400
O    3.688045959600  1.291053951900  0.091975442500
C    3.224584420100  0.003388341200 -0.017310628100
C    4.181722455500 -0.965815042500  0.288820063200
C    3.869346555700 -2.303662018300  0.216319574600
C    2.595314144500 -2.705094910000 -0.149229185400
C    1.636052477900 -1.755490968100 -0.469353286900
O    0.375683886800 -2.071600964200 -0.883292029600
C    0.040297071400 -3.434112497400 -1.045313405500
C    1.938520029400 -0.378977055600 -0.416266894100
C    0.933458140700  0.590370316400 -0.897264961500
C    1.300717409300  1.487065303200 -1.902534851500
C    0.399091323800  2.408847909200 -2.403113889200
C   -0.900474905600  2.454265428900 -1.929054827600
C   -1.286522004200  1.542372590700 -0.958182280500
C   -0.376456379600  0.620094669600 -0.425208627400
P   -1.208390894500 -0.502127131200  0.748182874200
C   -0.842183212300  0.336373974200  2.426886846200
C   -0.859067479800  1.861513706300  2.380078874300
C   -1.878099477800 -0.179487481300  3.428284935900
C    0.538925154200 -0.172464246600  2.847395131800
C   -2.830566016100  0.359208996600  0.277567185900
C   -3.736186818800 -0.614580418800 -0.498990261200
C   -3.110741411400 -0.987283362600 -1.839827786000
C   -5.127931399200 -0.016800100300 -0.694460869000
O   -2.555172358200  1.523329436700 -0.490825978300
H    2.106290467700  1.937345088800  1.274543880200
H    3.526528625500  2.999839623800  1.132126881100
H    2.369610296000  2.872494626300 -0.217109572500
H    5.164246728700 -0.630306698000  0.580902092800
H    4.615098622500 -3.046199250700  0.455770829900
H    2.367036593300 -3.756723004400 -0.190728024300
H    0.093860065400 -3.973907940600 -0.096089792700
H    0.687200734000 -3.914617823600 -1.784596855700
H   -0.987673148600 -3.442140653600 -1.402388132600
H    2.306146594100  1.446308329000 -2.297308044700
H    0.708243289900  3.095077323700 -3.177925188200
H   -1.618863328800  3.163016803600 -2.311213534500
H   -0.629867053500  2.262669154200  3.367285982600
H   -1.834796329800  2.240354450300  2.081259699500
H   -0.119890807400  2.242357068100  1.676855578500
H   -1.927690807000 -1.267500201100  3.397581898400
H   -2.870448609200  0.214605269700  3.218832408600
H   -1.601845903200  0.122888087100  4.437518825700
H    0.830698229800  0.258722380400  3.804391550400
H    0.528127050900 -1.257065468200  2.947572328300
H    1.294645226700  0.083569313300  2.107254691000
H   -3.373487710200  0.688032264500  1.172365470500
H   -3.816494392500 -1.518448144700  0.118660374400
H   -2.091119607100 -1.342454460200 -1.692989636600
H   -3.079386479300 -0.120592508400 -2.497642401900
H   -3.691714938700 -1.767894590900 -2.325667028100
H   -5.605178729600  0.172013366500  0.265198616800
H   -5.054263239800  0.925086515600 -1.234283228100
H   -5.755901650400 -0.697158500200 -1.265111382100
