55
-76.67157109
C    2.948646266900  2.332143522900  0.815006227300
O    3.531850834600  1.521224743500 -0.184395689300
C    3.194757172200  0.176488734900 -0.158842560100
C    4.200168742800 -0.716081784200  0.193777967200
C    3.952770689300 -2.073282850600  0.181303464800
C    2.705949092600 -2.553064176200 -0.177883955800
C    1.691336537700 -1.671151969800 -0.529588111500
O    0.451998619100 -2.068860987000 -0.929695199200
C    0.191345072100 -3.451901718800 -1.054535822100
C    1.922201808100 -0.282779158100 -0.517267185900
C    0.864309978900  0.654981015600 -0.940678641200
C    1.167227486300  1.632446595200 -1.890384244000
C    0.213444173000  2.543855545700 -2.304289967900
C   -1.076345248800  2.496420168300 -1.803227928100
C   -1.395725959100  1.510437297900 -0.882174151400
C   -0.430469548300  0.602350542100 -0.428054942000
P   -1.167265143800 -0.591292331200  0.737824464900
C   -0.786611147500  0.232791839800  2.420855914700
C   -1.735982681500 -0.389450504800  3.447010070900
C    0.648486788800 -0.172674518300  2.764010903400
C   -0.918005065900  1.752877239300  2.424277935800
C   -2.843643784700  0.196030885200  0.337735091900
C   -3.711236916000 -0.794493292900 -0.460892017500
C   -3.086031262500 -1.095670235700 -1.819750908900
C   -5.131964093500 -0.257624858000 -0.621676403600
O   -2.649032207700  1.405463438400 -0.384198445900
H    1.857552170400  2.342384937700  0.741013220800
H    3.244009116300  1.994983216700  1.814648274900
H    3.330270655600  3.336910175600  0.641863642800
H    5.168193265700 -0.323057745000  0.463226087700
H    4.733710596800 -2.767133099000  0.452669727600
H    2.535576725900 -3.616771255800 -0.184603907500
H    0.271276839500 -3.961505468500 -0.090672246500
H    0.865283694400 -3.916423458100 -1.779573525200
H   -0.833773081000 -3.524759628800 -1.412500960900
H    2.164633742700  1.672011858600 -2.301311075800
H    0.473230093000  3.295559721500 -3.034955319900
H   -1.835048235900  3.194451458700 -2.122223601700
H   -2.766010222700 -0.081644423400  3.277862142100
H   -1.452403977100 -0.080844484800  4.452303672500
H   -1.690563008900 -1.476844790300  3.396001706800
H    0.935417355600  0.228420613900  3.735347594300
H    1.345802757900  0.198729123600  2.016594006300
H    0.738774981100 -1.257683212800  2.799442000100
H   -0.226997551000  2.207620725900  1.715886026300
H   -1.926493847600  2.070043450000  2.165521777400
H   -0.687537771300  2.138602733700  3.417223862500
H   -3.383621725300  0.456086423800  1.256873839500
H   -3.741195868000 -1.720074552700  0.128439877300
H   -3.643504874900 -1.879049693000 -2.328203590700
H   -2.052839429100 -1.419154769500 -1.695380012500
H   -3.092728120100 -0.205520803700 -2.446287529200
H   -5.735111301700 -0.950090081100 -1.204409834200
H   -5.604366447400 -0.119155141600  0.348919553900
H   -5.109854567100  0.701905360400 -1.134300183900
