55
-76.67191140
C    3.039191554300  2.244131141500  0.920484470100
O    3.627006214600  1.444716602300 -0.085735395300
C    3.229816830300  0.118013594900 -0.137301628600
C    4.189856315600 -0.837512184800  0.176833985200
C    3.885696155600 -2.179653946500  0.079247431700
C    2.627616760200 -2.584798963900 -0.330540771100
C    1.658801133800 -1.640403581200 -0.645405128000
O    0.412975055900 -1.954612284600 -1.096337672200
C    0.094289669900 -3.309577299600 -1.333324543200
C    1.947009254100 -0.266242597000 -0.540802117400
C    0.926574899000  0.725390657800 -0.930002054300
C    1.260049408000  1.739538722700 -1.829036429700
C    0.322746044600  2.677373806300 -2.222428698600
C   -0.980154628000  2.618399392300 -1.756343453200
C   -1.325907839900  1.600003860200 -0.881632501200
C   -0.376951941100  0.669671641600 -0.442470613300
P   -1.135034491500 -0.544164144200  0.689253801200
C   -0.830443605400  0.283572627600  2.384674627400
C    0.589844423000 -0.123307424000  2.784204422700
C   -0.963302087600  1.803507355600  2.384476961800
C   -1.822287783500 -0.337162199900  3.370460321400
C   -2.804434442300  0.211016837100  0.207658395800
C   -3.526817794300 -0.741802458400 -0.764934900800
C   -4.785227532100 -0.082887127200 -1.326346934400
C   -3.872072129500 -2.046818542400 -0.057235264500
O   -2.587911213600  1.476358896000 -0.408145041400
H    3.287246813600  1.862693031000  1.917042307200
H    3.465362824700  3.238092590000  0.795090266000
H    1.952700227300  2.300468395500  0.810761818300
H    5.168953294700 -0.503743833300  0.483535083400
H    4.631829867800 -2.920849118400  0.322001486900
H    2.412914635600 -3.637856483300 -0.406391828500
H   -0.921260620900 -3.302424208400 -1.724440814600
H    0.120594937400 -3.894094406500 -0.409690842300
H    0.768406462400 -3.751154485100 -2.072547502400
H    2.266325161500  1.785674895800 -2.217382091400
H    0.604970747400  3.457810350500 -2.913609505200
H   -1.725949400200  3.334373859900 -2.065619262600
H    0.850865531300  0.302261821500  3.752397451500
H    1.312409513000  0.221529925700  2.047773648700
H    0.669529107400 -1.207666698000  2.851456346200
H   -1.956756309700  2.118128949300  2.070236348200
H   -0.234471391000  2.262003319900  1.717557219400
H   -0.789672828200  2.186435694000  3.390117654400
H   -1.791477699400 -1.424461015000  3.308601606100
H   -1.568291455800 -0.044393106100  4.388392577000
H   -2.840332664500 -0.009940904800  3.169775315000
H   -3.448015704700  0.386282210900  1.077140535200
H   -2.837275183100 -0.949643817500 -1.594011648500
H   -5.493187374500  0.119822950000 -0.524578993200
H   -5.261054017700 -0.736556233200 -2.053859574100
H   -4.539194037900  0.858606349300 -1.812115200000
H   -4.317758217400 -2.749099738500 -0.757349589800
H   -2.976252614900 -2.498255962700  0.366618376300
H   -4.580778150300 -1.863481456400  0.747960673400
