55
-76.67218962
C    0.296186719800 -3.427743572000 -1.001271721000
O    0.488143087500 -2.031190209000 -0.901560389100
C    1.707167048800 -1.568769689900 -0.508898822400
C    2.751443023800 -2.396110500400 -0.113290383600
C    3.976427356400 -1.855536078500  0.234044803400
C    4.173147155500 -0.490686089500  0.190478427800
C    3.137632976800  0.347543313600 -0.205119088300
O    3.423358901100  1.702284941700 -0.285449006400
C    2.816750019900  2.527281385700  0.688001941400
C    1.885418997100 -0.173424208100 -0.551322917600
C    0.797110941700  0.710237703900 -1.012341255100
C    1.070547576300  1.662220416700 -1.996326544000
C    0.090976696700  2.531913705600 -2.438670034900
C   -1.195528240800  2.467463631900 -1.930850299000
C   -1.485108547100  1.504291051600 -0.976529468400
C   -0.495461767900  0.637142915700 -0.496463644500
P   -1.197030790500 -0.539582282900  0.708248190700
C   -0.844338110500  0.355098456400  2.361316435700
C   -1.770841518400 -0.262129705700  3.411007261500
C    0.603600987600  0.008317723100  2.715225524500
C   -1.023746143000  1.869712535600  2.315636086900
C   -2.897144525100  0.188138218300  0.289286594700
C   -3.764388374700 -0.820180326800 -0.485928790700
C   -4.067957616000 -2.023319136900  0.399747122600
C   -3.074841596400 -1.249405226600 -1.777290149900
O   -2.734213075800  1.381895501100 -0.470176179100
H    0.367857613000 -3.911252677500 -0.023218210200
H   -0.711071145500 -3.558830571200 -1.392047539300
H    1.014765189100 -3.876463514300 -1.692468142600
H    2.621013233900 -3.464789230000 -0.075061574400
H    4.780232666900 -2.507690133000  0.539872578300
H    5.123820028400 -0.050617158400  0.448830288900
H    3.127617195200  2.236229185000  1.697391036900
H    1.725595396700  2.496831988900  0.619357635700
H    3.162108932600  3.538023030100  0.477524806000
H    2.065788741900  1.716028313400 -2.410865674300
H    0.328122193800  3.264776883100 -3.195718271500
H   -1.973809206900  3.134102150900 -2.269223534600
H   -1.494544864700  0.089000349400  4.404376568300
H   -1.691074284300 -1.348491878000  3.396726585200
H   -2.810200820200  0.007837152800  3.235591774500
H    0.729733199100 -1.071417938700  2.785886643300
H    0.877850238300  0.449926993900  3.672603958200
H    1.288184993900  0.377862985900  1.955238243800
H   -2.042466833100  2.147195115900  2.051308147400
H   -0.801971703400  2.294784176400  3.294504131900
H   -0.349998586300  2.322794761500  1.589701691600
H   -3.436946982300  0.466132174000  1.203496725200
H   -4.703804928000 -0.312609553400 -0.740832643400
H   -4.678646661000 -2.744300123800 -0.137870918000
H   -4.602089859700 -1.717811983200  1.296948837700
H   -3.138310216900 -2.506758500000  0.697066819500
H   -3.664986023000 -2.004700081700 -2.291511034400
H   -2.945472243700 -0.399867396900 -2.445541892700
H   -2.090865188400 -1.658801515100 -1.550329165500
