55
-76.67754557
C    4.446236416000  1.946484834400  0.653940994100
O    3.239520506000  1.435105971800  0.132514825700
C    3.079420256100  0.080460836300  0.049696207900
C    4.034702877800 -0.841496100700  0.460927661600
C    3.760230628700 -2.193138540400  0.370284151000
C    2.547930766500 -2.646385852800 -0.112823179200
C    1.582402207900 -1.732679802900 -0.522960044400
O    0.362533571500 -2.087927758000 -1.019830604300
C    0.081548849800 -3.461955858300 -1.189455063900
C    1.845472469000 -0.357908451600 -0.453872124800
C    0.849663789000  0.623136794400 -0.927148714500
C    1.203926757800  1.579680186700 -1.877537058200
C    0.279810927700  2.499826213900 -2.337349782900
C   -1.028719840100  2.484937926000 -1.882389964600
C   -1.394870789400  1.527151760700 -0.950174205400
C   -0.456658026200  0.615251389100 -0.452893479100
P   -1.220918353200 -0.518692610700  0.746986165900
C   -0.852135276600  0.400883589400  2.383944527200
C   -1.033142596800  1.914793939900  2.317633785300
C   -1.773251021100 -0.208117784100  3.443153932500
C    0.601530823900  0.078310891900  2.734355614500
C   -2.882148320500  0.263992502200  0.278433134400
C   -3.743491518200 -0.743120436500 -0.505917584000
C   -3.102246226500 -1.080141211800 -1.848675249700
C   -5.159229974900 -0.203397112100 -0.699275635500
O   -2.661442021200  1.448563115200 -0.478509244000
H    4.603630636900  1.626140192700  1.688379148600
H    5.304347421300  1.651187442800  0.042517615800
H    4.335978864700  3.029466869000  0.623222679700
H    4.985751483700 -0.518806218700  0.850851186700
H    4.505349285200 -2.907249513400  0.687554058400
H    2.364266827300 -3.706478891400 -0.163072619400
H    0.076621165200 -3.989124625500 -0.231466681400
H    0.798620096300 -3.931219941500 -1.869025222700
H   -0.914013405200 -3.506250602400 -1.626753638800
H    2.212761116000  1.593409934200 -2.260819278800
H    0.576336937700  3.235141314700 -3.071159146500
H   -1.761607549300  3.190949651100 -2.242055453200
H   -2.050082192400  2.192004438800  2.047252296300
H   -0.352217202500  2.354651525900  1.589753699000
H   -0.814365433900  2.349957486200  3.292842068200
H   -1.652203225800 -1.290435977700  3.472647097200
H   -2.818791879000  0.013528884900  3.236217956500
H   -1.530571138200  0.191875225300  4.426766406600
H    1.276354090900  0.529551224000  2.010511982600
H    0.847098211500  0.465096172200  3.722897866200
H    0.769211061900 -0.998300122100  2.733862881200
H   -3.438538173800  0.558041805700  1.177904058600
H   -3.785846532800 -1.653770114500  0.105455625000
H   -2.071195054700 -1.399751289000 -1.702505227300
H   -3.100509626800 -0.206291949500 -2.497712044900
H   -3.654773238700 -1.875896865400 -2.343226888200
H   -5.757678612100 -0.906356488700 -1.274279445900
H   -5.644525617200 -0.039905476900  0.261016195800
H   -5.124421169700  0.743783607300 -1.233678278300
