55
-76.67115553
C    2.909924981500  2.323534175200  0.656334524000
O    3.737930787000  1.242016784200  0.283664604700
C    3.235335933800 -0.005012258000  0.023587309400
C    4.149670680200 -1.031439606100  0.279871664600
C    3.804674691900 -2.345794659400  0.071658605700
C    2.537997183000 -2.674733756600 -0.384559543000
C    1.622606715000 -1.669564551200 -0.653361652700
O    0.370206525800 -1.899099327200 -1.144539707200
C   -0.003319344900 -3.222561357400 -1.461945654400
C    1.960685393300 -0.312653821400 -0.460261150500
C    0.975479422200  0.699473248000 -0.892864393000
C    1.330093003400  1.639324867400 -1.860848225600
C    0.412541784300  2.568215720200 -2.319824771500
C   -0.891367263900  2.567921189000 -1.853890194400
C   -1.263068202500  1.608906421900 -0.924008709500
C   -0.333096276400  0.693302915600 -0.420377320600
P   -1.128206719200 -0.482773877100  0.725617029000
C   -0.862122230600  0.373728396600  2.413152168500
C   -0.945986108500  1.896701946900  2.367954768500
C   -1.910121980700 -0.186567788600  3.377237855800
C    0.524622161500 -0.075725212300  2.881202063200
C   -2.777787517700  0.278262294600  0.184529806300
C   -3.489955776400 -0.693436009900 -0.776730020700
C   -4.730576789100 -0.038267516900 -1.380546633000
C   -3.862057355300 -1.975965772100 -0.042104762700
O   -2.532758636700  1.522764661400 -0.463003582200
H    2.611155551800  2.919198827600 -0.210230620300
H    2.016223106900  1.986233439300  1.181619852300
H    3.513204498600  2.938608405200  1.326383712400
H    5.126561158800 -0.754907733100  0.643637393400
H    4.519054801800 -3.129281306800  0.273461098000
H    2.282863869200 -3.710344369100 -0.534078760400
H   -1.012136747600 -3.149176678600 -1.863771822000
H   -0.014954319200 -3.859334086100 -0.573136745200
H    0.661175649400 -3.651409991300 -2.217449029600
H    2.332646317400  1.623652166800 -2.264956957900
H    0.710437378900  3.292276330800 -3.064064945200
H   -1.621215981700  3.276186112400 -2.214438639800
H   -0.189886094100  2.315916150700  1.705447349400
H   -0.786684487700  2.303229465100  3.366736770600
H   -1.921945537300  2.229872769500  2.019477962900
H   -1.925931997800 -1.275096789100  3.333243012100
H   -2.906199417200  0.182136460200  3.141911729800
H   -1.673002079500  0.111553299600  4.397683351800
H    1.291295171100  0.196275052600  2.158136814200
H    0.773456979200  0.381738226200  3.838016890000
H    0.551608116300 -1.158355728000  2.998813891300
H   -3.438330906800  0.486333476700  1.033495797900
H   -2.785790797300 -0.929009812500 -1.585752675400
H   -5.197819893300 -0.706612999300 -2.100264457100
H   -4.466115618800  0.887949575200 -1.885596423600
H   -5.452576929200  0.191503530000 -0.598854738900
H   -4.302652325000 -2.691661110800 -0.731760711400
H   -2.979008911600 -2.425841066900  0.409348038300
H   -4.583098569100 -1.764410465400  0.745032796000
