55
-76.67814122
C    4.508035968900  1.873610460300  0.786843490000
O    3.294706511100  1.428654031400  0.221446600900
C    3.106782403000  0.087597252900  0.039232255600
C    4.038671406200 -0.884946091300  0.383417969200
C    3.735636493000 -2.219124348000  0.186337597300
C    2.517558290900 -2.608337173800 -0.337857969400
C    1.575296912500 -1.644476767000 -0.679694011900
O    0.349808056400 -1.927019769200 -1.208101987200
C    0.029955303500 -3.271568079400 -1.495092045700
C    1.868639784300 -0.285051687200 -0.501383765500
C    0.886687060600  0.735807216000 -0.913042429500
C    1.235826027800  1.750044328300 -1.802700841500
C    0.297441615600  2.675352336000 -2.223763445400
C   -1.019645556600  2.604900480100 -1.797712269900
C   -1.376587979900  1.593501137200 -0.920301273700
C   -0.422991231000  0.684052847400 -0.453449786100
P   -1.160608166400 -0.501610373400  0.711898386400
C   -0.883779502300  0.427557200500  2.359623780500
C   -1.197929465900  1.920362627400  2.320541056000
C   -1.758771022400 -0.276142046600  3.398858341900
C    0.591232569100  0.227107011700  2.712266227600
C   -2.839804662000  0.192047465500  0.175388637800
C   -3.513072770200 -0.804559430700 -0.788287541800
C   -4.774723206900 -0.194778919800 -1.396147545800
C   -3.840111462000 -2.100374930700 -0.055444220900
O   -2.645216135700  1.448931353800 -0.467339823800
H    4.650476413300  1.473370495900  1.795248142700
H    5.364211902100  1.606061154100  0.160131844600
H    4.421228817900  2.958008875000  0.836690761500
H    4.994006737800 -0.614822127300  0.801903619200
H    4.463338583200 -2.971601456100  0.451189497500
H    2.311642486600 -3.656954223900 -0.473407538500
H    0.732341469900 -3.701359830900 -2.215159054900
H   -0.966910051800 -3.245047534200 -1.931000817200
H    0.010276865800 -3.880795024500 -0.587209508100
H    2.248970694300  1.804310978100 -2.170817555400
H    0.588682512600  3.456767788800 -2.910606808800
H   -1.762588844400  3.310651095000 -2.136504824800
H   -1.016232337300  2.354575194900  3.303906302600
H   -2.236240131700  2.109799224300  2.056073192600
H   -0.560572002200  2.433761401900  1.601568001400
H   -1.542883288600 -1.343799566100  3.416524570200
H   -2.816219023500 -0.143865645800  3.176587935800
H   -1.566601936500  0.129994995400  4.391141036800
H    1.226809992100  0.738761519800  1.992124608900
H    0.801721168000  0.627443594800  3.703535383300
H    0.848944476700 -0.831764291200  2.705716967100
H   -3.506158951300  0.369405360600  1.027859771300
H   -2.797661134300 -1.013789191200 -1.594543360900
H   -5.214631025500 -0.878992860500 -2.118191616300
H   -4.541864471600  0.740969089400 -1.899126475800
H   -5.507345025800  0.008024875100 -0.616857237000
H   -4.251736608800 -2.831530712200 -0.746785507000
H   -2.942397182400 -2.516752178100  0.399098388900
H   -4.571163591500 -1.915971644900  0.729358280400
