55
-76.67111801
C    2.826691106400  2.355776445400  0.651683715000
O    3.647552253400  1.346809335100  0.097745413900
C    3.183058354300  0.064855553700 -0.064776019500
C    4.139804810800 -0.916870513100  0.198724296800
C    3.826064281900 -2.250206457500  0.069763846500
C    2.551898010200 -2.634074914700 -0.313192865400
C    1.593317314900 -1.671017084800 -0.594074612200
O    0.334585965800 -1.970518147700 -1.024961946100
C    0.015664905800 -3.323342474200 -1.278461507800
C    1.896203820700 -0.298559693000 -0.479690838600
C    0.893601378300  0.695924976900 -0.912307513500
C    1.264144329900  1.639333300100 -1.872754378500
C    0.369323228700  2.594457458700 -2.320003057600
C   -0.926600392900  2.629689889500 -1.834827168600
C   -1.316189993200  1.671956782100 -0.910810469700
C   -0.414158101800  0.712494261800 -0.433446283200
P   -1.251933551700 -0.463022069500  0.682841651700
C   -0.881200801700  0.294175801700  2.399119487400
C    0.501189183200 -0.235183128800  2.789509082000
C   -0.895887682400  1.819933953000  2.429823038200
C   -1.912910272800 -0.269519698000  3.378765842000
C   -2.870166210700  0.434994560100  0.264492713300
C   -3.807072677500 -0.452649075800 -0.574612128600
C   -4.221560492500 -1.674700988100  0.237003715500
C   -3.136832846000 -0.862614505200 -1.882199856000
O   -2.582701789400  1.641176828700 -0.436025934000
H    2.340967622700  2.951390310400 -0.125794898300
H    2.065455127400  1.936190021200  1.309959530000
H    3.492771911400  2.995705067900  1.233152857400
H    5.122779159700 -0.594808843100  0.504148124800
H    4.570790297600 -3.003127133700  0.278006022200
H    2.322625931000 -3.682897141600 -0.397625801600
H    0.044445703600 -3.918746296300 -0.361862597500
H    0.689124083200 -3.754799816700 -2.023993379200
H   -0.999767274200 -3.318603593800 -1.669636378100
H    2.267374694100  1.610098609800 -2.274090962000
H    0.681013612600  3.316496457100 -3.060528299400
H   -1.639558186000  3.365509169300 -2.173523370000
H    1.253887893000  0.052196220900  2.057815154400
H    0.489108135500 -1.323133174600  2.841588307200
H    0.798754370200  0.152564937800  3.763213232900
H   -0.665753197100  2.169843568500  3.436221623100
H   -1.870847430200  2.215830541700  2.151294002400
H   -0.156333398800  2.235342977400  1.746795809000
H   -2.904860266800  0.138087494300  3.195766706100
H   -1.965823002200 -1.354268058700  3.293226078600
H   -1.629928481400 -0.019753463700  4.400516170900
H   -3.404045153400  0.719950209700  1.179794267200
H   -4.697938564800  0.144666057500 -0.808458670400
H   -4.737450902100 -1.376924828900  1.147337803000
H   -3.340023696300 -2.252855380000  0.510950327800
H   -4.885561289800 -2.308278992600 -0.345679139700
H   -3.774404896800 -1.544403975200 -2.440455224700
H   -2.938235564400  0.009161821700 -2.503033246300
H   -2.187949204000 -1.353835007000 -1.669633662000
