55
-76.67818205
C    4.398741016400  1.957618000300  0.719652523000
O    3.194576146300  1.474291895900  0.166723326800
C    3.032598470000  0.125337467700  0.018199800200
C    3.984072009700 -0.816959793500  0.389895950400
C    3.707290276000 -2.162147936800  0.233758187400
C    2.496864674400 -2.588883728800 -0.277090418700
C    1.535401798500 -1.654626320100 -0.649482009900
O    0.318551828200 -1.984605765900 -1.170401872200
C    0.058912099200 -3.344860635900 -1.451224627100
C    1.800651433600 -0.285606128400 -0.513100650000
C    0.812178792000  0.722351705400 -0.943702487400
C    1.177748985900  1.717256443600 -1.849452819500
C    0.265775199800  2.670397738500 -2.263841223900
C   -1.041441569700  2.653366297600 -1.805065182400
C   -1.418508054600  1.657738116200 -0.917989152200
C   -0.493852321400  0.708217429200 -0.468720339900
P   -1.271612909400 -0.472419130200  0.676716420200
C   -0.887362768400  0.364615982400  2.354277576700
C    0.558837574200 -0.004936989900  2.689391082000
C   -1.034671532000  1.883781362600  2.358946631300
C   -1.820224198600 -0.272127432900  3.386455053200
C   -2.924091362400  0.360736123500  0.259803169400
C   -3.834244412100 -0.562445894300 -0.569729607600
C   -4.212707550600 -1.788013471800  0.254141489400
C   -3.151840685600 -0.966657024800 -1.872580575200
O   -2.685015959900  1.576286135500 -0.445215918100
H    4.289761884700  3.040930709900  0.741994554800
H    4.549945476000  1.586300948100  1.737870839900
H    5.260080551000  1.691888888800  0.099230202700
H    4.933677108700 -0.515162084800  0.799576787700
H    4.449052988400 -2.892308647300  0.520933476600
H    2.311089501200 -3.645091575400 -0.377070012200
H    0.805013091700 -3.756337475200 -2.136794248800
H   -0.919063398100 -3.366614600800 -1.928454759100
H    0.026260074700 -3.942239375900 -0.535695379300
H    2.186414822300  1.735750220200 -2.233158932800
H    0.570878470700  3.434846652500 -2.963583501600
H   -1.765106581000  3.386469639200 -2.127248045500
H    1.243740762500  0.464085036800  1.986804240400
H    0.703492385300 -1.083780494100  2.639899018400
H    0.812232681000  0.331032920600  3.694463598600
H   -0.341348476600  2.342234387500  1.654581463800
H   -0.810107345500  2.267560563200  3.354297941900
H   -2.044005008500  2.196788853800  2.099013166100
H   -1.728573030600 -1.357362617200  3.361444220600
H   -1.562240587700  0.071323201300  4.387475900600
H   -2.859883497000 -0.011429291300  3.197564958300
H   -3.461820651800  0.628525302200  1.178869237600
H   -4.742206068700  0.006324923800 -0.809276984800
H   -3.314376807300 -2.337815274300  0.531682651500
H   -4.859331556000 -2.445662361600 -0.321383426500
H   -4.735389257500 -1.496685655700  1.162784772700
H   -2.193585971300 -1.435786158700 -1.653071095200
H   -3.773696928600 -1.665289565600 -2.427974111900
H   -2.969696373100 -0.094538234200 -2.497983500500
